MaterialData (MaterialNumber, MaterialType, E, nu, density, max. principal stress limit for element deletion) 
       1       HookesMat    2.10000e+011    3.000e-01 	8.00000e+03    5.0e+15
Mesh Parameters: (Total-number-of-Nodes Total-number-of-Elements, Simulation start time, Simulation End Time, dt, Impulse start time, Impulse end time, newmark-gamma, newmark-beta)
      525     1920    0		2e-2	5e-05	0	2e-02	0.5     0
Nodal Coordinates (x,y,z) 
0	-2	-2
0	-2	-1
0	-2	0
0	-2	1
0	-2	2
0	-1	-2
0	-1	-1
0	-1	0
0	-1	1
0	-1	2
0	0	-2
0	0	-1
0	0	0
0	0	1
0	0	2
0	1	-2
0	1	-1
0	1	0
0	1	1
0	1	2
0	2	-2
0	2	-1
0	2	0
0	2	1
0	2	2
1	-2	-2
1	-2	-1
1	-2	0
1	-2	1
1	-2	2
1	-1	-2
1	-1	-1
1	-1	0
1	-1	1
1	-1	2
1	0	-2
1	0	-1
1	0	0
1	0	1
1	0	2
1	1	-2
1	1	-1
1	1	0
1	1	1
1	1	2
1	2	-2
1	2	-1
1	2	0
1	2	1
1	2	2
2	-2	-2
2	-2	-1
2	-2	0
2	-2	1
2	-2	2
2	-1	-2
2	-1	-1
2	-1	0
2	-1	1
2	-1	2
2	0	-2
2	0	-1
2	0	0
2	0	1
2	0	2
2	1	-2
2	1	-1
2	1	0
2	1	1
2	1	2
2	2	-2
2	2	-1
2	2	0
2	2	1
2	2	2
3	-2	-2
3	-2	-1
3	-2	0
3	-2	1
3	-2	2
3	-1	-2
3	-1	-1
3	-1	0
3	-1	1
3	-1	2
3	0	-2
3	0	-1
3	0	0
3	0	1
3	0	2
3	1	-2
3	1	-1
3	1	0
3	1	1
3	1	2
3	2	-2
3	2	-1
3	2	0
3	2	1
3	2	2
4	-2	-2
4	-2	-1
4	-2	0
4	-2	1
4	-2	2
4	-1	-2
4	-1	-1
4	-1	0
4	-1	1
4	-1	2
4	0	-2
4	0	-1
4	0	0
4	0	1
4	0	2
4	1	-2
4	1	-1
4	1	0
4	1	1
4	1	2
4	2	-2
4	2	-1
4	2	0
4	2	1
4	2	2
5	-2	-2
5	-2	-1
5	-2	0
5	-2	1
5	-2	2
5	-1	-2
5	-1	-1
5	-1	0
5	-1	1
5	-1	2
5	0	-2
5	0	-1
5	0	0
5	0	1
5	0	2
5	1	-2
5	1	-1
5	1	0
5	1	1
5	1	2
5	2	-2
5	2	-1
5	2	0
5	2	1
5	2	2
6	-2	-2
6	-2	-1
6	-2	0
6	-2	1
6	-2	2
6	-1	-2
6	-1	-1
6	-1	0
6	-1	1
6	-1	2
6	0	-2
6	0	-1
6	0	0
6	0	1
6	0	2
6	1	-2
6	1	-1
6	1	0
6	1	1
6	1	2
6	2	-2
6	2	-1
6	2	0
6	2	1
6	2	2
7	-2	-2
7	-2	-1
7	-2	0
7	-2	1
7	-2	2
7	-1	-2
7	-1	-1
7	-1	0
7	-1	1
7	-1	2
7	0	-2
7	0	-1
7	0	0
7	0	1
7	0	2
7	1	-2
7	1	-1
7	1	0
7	1	1
7	1	2
7	2	-2
7	2	-1
7	2	0
7	2	1
7	2	2
8	-2	-2
8	-2	-1
8	-2	0
8	-2	1
8	-2	2
8	-1	-2
8	-1	-1
8	-1	0
8	-1	1
8	-1	2
8	0	-2
8	0	-1
8	0	0
8	0	1
8	0	2
8	1	-2
8	1	-1
8	1	0
8	1	1
8	1	2
8	2	-2
8	2	-1
8	2	0
8	2	1
8	2	2
9	-2	-2
9	-2	-1
9	-2	0
9	-2	1
9	-2	2
9	-1	-2
9	-1	-1
9	-1	0
9	-1	1
9	-1	2
9	0	-2
9	0	-1
9	0	0
9	0	1
9	0	2
9	1	-2
9	1	-1
9	1	0
9	1	1
9	1	2
9	2	-2
9	2	-1
9	2	0
9	2	1
9	2	2
10	-2	-2
10	-2	-1
10	-2	0
10	-2	1
10	-2	2
10	-1	-2
10	-1	-1
10	-1	0
10	-1	1
10	-1	2
10	0	-2
10	0	-1
10	0	0
10	0	1
10	0	2
10	1	-2
10	1	-1
10	1	0
10	1	1
10	1	2
10	2	-2
10	2	-1
10	2	0
10	2	1
10	2	2
11	-2	-2
11	-2	-1
11	-2	0
11	-2	1
11	-2	2
11	-1	-2
11	-1	-1
11	-1	0
11	-1	1
11	-1	2
11	0	-2
11	0	-1
11	0	0
11	0	1
11	0	2
11	1	-2
11	1	-1
11	1	0
11	1	1
11	1	2
11	2	-2
11	2	-1
11	2	0
11	2	1
11	2	2
12	-2	-2
12	-2	-1
12	-2	0
12	-2	1
12	-2	2
12	-1	-2
12	-1	-1
12	-1	0
12	-1	1
12	-1	2
12	0	-2
12	0	-1
12	0	0
12	0	1
12	0	2
12	1	-2
12	1	-1
12	1	0
12	1	1
12	1	2
12	2	-2
12	2	-1
12	2	0
12	2	1
12	2	2
13	-2	-2
13	-2	-1
13	-2	0
13	-2	1
13	-2	2
13	-1	-2
13	-1	-1
13	-1	0
13	-1	1
13	-1	2
13	0	-2
13	0	-1
13	0	0
13	0	1
13	0	2
13	1	-2
13	1	-1
13	1	0
13	1	1
13	1	2
13	2	-2
13	2	-1
13	2	0
13	2	1
13	2	2
14	-2	-2
14	-2	-1
14	-2	0
14	-2	1
14	-2	2
14	-1	-2
14	-1	-1
14	-1	0
14	-1	1
14	-1	2
14	0	-2
14	0	-1
14	0	0
14	0	1
14	0	2
14	1	-2
14	1	-1
14	1	0
14	1	1
14	1	2
14	2	-2
14	2	-1
14	2	0
14	2	1
14	2	2
15	-2	-2
15	-2	-1
15	-2	0
15	-2	1
15	-2	2
15	-1	-2
15	-1	-1
15	-1	0
15	-1	1
15	-1	2
15	0	-2
15	0	-1
15	0	0
15	0	1
15	0	2
15	1	-2
15	1	-1
15	1	0
15	1	1
15	1	2
15	2	-2
15	2	-1
15	2	0
15	2	1
15	2	2
16	-2	-2
16	-2	-1
16	-2	0
16	-2	1
16	-2	2
16	-1	-2
16	-1	-1
16	-1	0
16	-1	1
16	-1	2
16	0	-2
16	0	-1
16	0	0
16	0	1
16	0	2
16	1	-2
16	1	-1
16	1	0
16	1	1
16	1	2
16	2	-2
16	2	-1
16	2	0
16	2	1
16	2	2
17	-2	-2
17	-2	-1
17	-2	0
17	-2	1
17	-2	2
17	-1	-2
17	-1	-1
17	-1	0
17	-1	1
17	-1	2
17	0	-2
17	0	-1
17	0	0
17	0	1
17	0	2
17	1	-2
17	1	-1
17	1	0
17	1	1
17	1	2
17	2	-2
17	2	-1
17	2	0
17	2	1
17	2	2
18	-2	-2
18	-2	-1
18	-2	0
18	-2	1
18	-2	2
18	-1	-2
18	-1	-1
18	-1	0
18	-1	1
18	-1	2
18	0	-2
18	0	-1
18	0	0
18	0	1
18	0	2
18	1	-2
18	1	-1
18	1	0
18	1	1
18	1	2
18	2	-2
18	2	-1
18	2	0
18	2	1
18	2	2
19	-2	-2
19	-2	-1
19	-2	0
19	-2	1
19	-2	2
19	-1	-2
19	-1	-1
19	-1	0
19	-1	1
19	-1	2
19	0	-2
19	0	-1
19	0	0
19	0	1
19	0	2
19	1	-2
19	1	-1
19	1	0
19	1	1
19	1	2
19	2	-2
19	2	-1
19	2	0
19	2	1
19	2	2
20	-2	-2
20	-2	-1
20	-2	0
20	-2	1
20	-2	2
20	-1	-2
20	-1	-1
20	-1	0
20	-1	1
20	-1	2
20	0	-2
20	0	-1
20	0	0
20	0	1
20	0	2
20	1	-2
20	1	-1
20	1	0
20	1	1
20	1	2
20	2	-2
20	2	-1
20	2	0
20	2	1
20	2	2
Element Connectivities (ElementNumber, Type, MaterialNumber, bx, by, Connectivity: (Node1, Node2, Node3 ... )) 
1	T4	1	0	0	0	282	277	257	281
2	T4	1	0	0	0	190	215	210	214
3	T4	1	0	0	0	323	299	298	318
4	T4	1	0	0	0	353	358	357	333
5	T4	1	0	0	0	445	440	420	444
6	T4	1	0	0	0	189	184	165	164
7	T4	1	0	0	0	144	139	140	120
8	T4	1	0	0	0	9	33	34	29
9	T4	1	0	0	0	236	232	237	212
10	T4	1	0	0	0	8	33	13	9
11	T4	1	0	0	0	491	496	472	492
12	T4	1	0	0	0	240	220	244	239
13	T4	1	0	0	0	133	128	132	152
14	T4	1	0	0	0	83	82	102	78
15	T4	1	0	0	0	130	135	155	154
16	T4	1	0	0	0	128	127	132	152
17	T4	1	0	0	0	488	483	464	463
18	T4	1	0	0	0	384	388	408	383
19	T4	1	0	0	0	218	243	242	223
20	T4	1	0	0	0	74	70	69	94
21	T4	1	0	0	0	63	43	44	68
22	T4	1	0	0	0	209	214	233	213
23	T4	1	0	0	0	209	184	204	185
24	T4	1	0	0	0	291	272	267	292
25	T4	1	0	0	0	69	50	49	45
26	T4	1	0	0	0	217	213	212	237
27	T4	1	0	0	0	304	284	303	279
28	T4	1	0	0	0	145	125	144	120
29	T4	1	0	0	0	137	133	138	113
30	T4	1	0	0	0	57	33	52	53
31	T4	1	0	0	0	108	103	107	127
32	T4	1	0	0	0	165	140	164	160
33	T4	1	0	0	0	201	182	202	206
34	T4	1	0	0	0	119	124	99	100
35	T4	1	0	0	0	241	222	242	246
36	T4	1	0	0	0	7	6	26	2
37	T4	1	0	0	0	28	32	27	8
38	T4	1	0	0	0	193	213	212	217
39	T4	1	0	0	0	138	118	114	119
40	T4	1	0	0	0	131	156	132	151
41	T4	1	0	0	0	232	227	231	251
42	T4	1	0	0	0	38	37	13	18
43	T4	1	0	0	0	182	207	183	202
44	T4	1	0	0	0	165	185	160	184
45	T4	1	0	0	0	65	70	69	45
46	T4	1	0	0	0	157	132	137	156
47	T4	1	0	0	0	206	187	211	186
48	T4	1	0	0	0	239	219	238	214
49	T4	1	0	0	0	388	387	368	392
50	T4	1	0	0	0	336	332	312	331
51	T4	1	0	0	0	177	182	202	201
52	T4	1	0	0	0	226	202	207	206
53	T4	1	0	0	0	397	392	393	373
54	T4	1	0	0	0	98	73	97	93
55	T4	1	0	0	0	206	181	182	186
56	T4	1	0	0	0	177	182	178	202
57	T4	1	0	0	0	131	151	132	127
58	T4	1	0	0	0	92	97	116	96
59	T4	1	0	0	0	102	106	82	107
60	T4	1	0	0	0	491	516	496	492
61	T4	1	0	0	0	472	473	448	468
62	T4	1	0	0	0	474	473	498	493
63	T4	1	0	0	0	220	219	244	239
64	T4	1	0	0	0	101	126	106	102
65	T4	1	0	0	0	344	348	349	368
66	T4	1	0	0	0	32	7	31	27
67	T4	1	0	0	0	289	269	293	288
68	T4	1	0	0	0	417	437	441	442
69	T4	1	0	0	0	107	131	132	127
70	T4	1	0	0	0	157	182	158	177
71	T4	1	0	0	0	263	262	238	243
72	T4	1	0	0	0	259	255	260	235
73	T4	1	0	0	0	382	357	381	377
74	T4	1	0	0	0	147	167	143	142
75	T4	1	0	0	0	206	182	187	186
76	T4	1	0	0	0	312	316	292	317
77	T4	1	0	0	0	364	389	369	365
78	T4	1	0	0	0	88	93	69	89
79	T4	1	0	0	0	168	148	143	144
80	T4	1	0	0	0	157	162	158	182
81	T4	1	0	0	0	208	184	204	209
82	T4	1	0	0	0	315	340	339	320
83	T4	1	0	0	0	54	59	55	79
84	T4	1	0	0	0	249	245	269	250
85	T4	1	0	0	0	49	50	69	74
86	T4	1	0	0	0	44	48	24	49
87	T4	1	0	0	0	387	411	392	412
88	T4	1	0	0	0	271	272	267	291
89	T4	1	0	0	0	83	58	78	59
90	T4	1	0	0	0	287	307	283	282
91	T4	1	0	0	0	138	133	114	113
92	T4	1	0	0	0	40	35	39	59
93	T4	1	0	0	0	444	425	424	420
94	T4	1	0	0	0	317	341	336	316
95	T4	1	0	0	0	297	292	273	272
96	T4	1	0	0	0	89	94	70	90
97	T4	1	0	0	0	287	291	292	311
98	T4	1	0	0	0	139	119	115	120
99	T4	1	0	0	0	272	292	291	296
100	T4	1	0	0	0	88	112	107	87
101	T4	1	0	0	0	95	99	94	75
102	T4	1	0	0	0	266	271	267	291
103	T4	1	0	0	0	424	400	399	419
104	T4	1	0	0	0	107	82	102	83
105	T4	1	0	0	0	90	94	95	114
106	T4	1	0	0	0	306	302	307	282
107	T4	1	0	0	0	234	235	230	254
108	T4	1	0	0	0	120	124	119	100
109	T4	1	0	0	0	208	212	232	207
110	T4	1	0	0	0	107	83	103	108
111	T4	1	0	0	0	214	213	209	189
112	T4	1	0	0	0	109	105	104	129
113	T4	1	0	0	0	137	136	132	112
114	T4	1	0	0	0	157	161	162	181
115	T4	1	0	0	0	176	156	157	181
116	T4	1	0	0	0	73	74	69	93
117	T4	1	0	0	0	374	394	375	370
118	T4	1	0	0	0	369	370	345	365
119	T4	1	0	0	0	167	172	191	171
120	T4	1	0	0	0	309	333	313	314
121	T4	1	0	0	0	476	452	457	456
122	T4	1	0	0	0	418	437	417	442
123	T4	1	0	0	0	237	232	213	212
124	T4	1	0	0	0	284	259	264	283
125	T4	1	0	0	0	234	214	233	209
126	T4	1	0	0	0	145	144	140	120
127	T4	1	0	0	0	92	68	87	88
128	T4	1	0	0	0	116	97	121	96
129	T4	1	0	0	0	407	408	388	383
130	T4	1	0	0	0	442	461	441	466
131	T4	1	0	0	0	458	478	453	477
132	T4	1	0	0	0	389	394	390	414
133	T4	1	0	0	0	157	156	161	181
134	T4	1	0	0	0	346	366	342	341
135	T4	1	0	0	0	314	339	338	319
136	T4	1	0	0	0	183	178	158	182
137	T4	1	0	0	0	12	11	31	7
138	T4	1	0	0	0	159	135	134	154
139	T4	1	0	0	0	366	362	342	361
140	T4	1	0	0	0	408	427	428	403
141	T4	1	0	0	0	10	34	15	35
142	T4	1	0	0	0	469	488	493	489
143	T4	1	0	0	0	282	278	283	258
144	T4	1	0	0	0	144	119	139	120
145	T4	1	0	0	0	390	385	409	410
146	T4	1	0	0	0	281	306	282	301
147	T4	1	0	0	0	309	285	284	304
148	T4	1	0	0	0	480	485	505	504
149	T4	1	0	0	0	308	303	304	284
150	T4	1	0	0	0	512	511	492	516
151	T4	1	0	0	0	66	42	61	62
152	T4	1	0	0	0	74	99	94	98
153	T4	1	0	0	0	405	385	410	409
154	T4	1	0	0	0	88	69	64	89
155	T4	1	0	0	0	244	264	268	269
156	T4	1	0	0	0	315	339	319	320
157	T4	1	0	0	0	148	124	143	144
158	T4	1	0	0	0	357	352	376	377
159	T4	1	0	0	0	397	393	398	373
160	T4	1	0	0	0	358	339	363	338
161	T4	1	0	0	0	7	6	11	31
162	T4	1	0	0	0	461	437	462	442
163	T4	1	0	0	0	485	484	460	465
164	T4	1	0	0	0	378	354	358	353
165	T4	1	0	0	0	418	394	398	393
166	T4	1	0	0	0	228	208	204	209
167	T4	1	0	0	0	391	386	387	367
168	T4	1	0	0	0	371	391	372	367
169	T4	1	0	0	0	244	268	249	269
170	T4	1	0	0	0	151	156	152	176
171	T4	1	0	0	0	341	342	322	317
172	T4	1	0	0	0	342	361	341	366
173	T4	1	0	0	0	226	231	227	251
174	T4	1	0	0	0	364	365	345	340
175	T4	1	0	0	0	52	56	51	32
176	T4	1	0	0	0	431	412	411	407
177	T4	1	0	0	0	67	68	87	92
178	T4	1	0	0	0	68	69	64	88
179	T4	1	0	0	0	312	293	292	288
180	T4	1	0	0	0	439	415	420	419
181	T4	1	0	0	0	44	45	20	40
182	T4	1	0	0	0	458	438	463	462
183	T4	1	0	0	0	362	361	366	386
184	T4	1	0	0	0	433	429	428	453
185	T4	1	0	0	0	286	261	262	266
186	T4	1	0	0	0	79	84	60	80
187	T4	1	0	0	0	77	81	76	57
188	T4	1	0	0	0	159	140	164	139
189	T4	1	0	0	0	354	330	335	334
190	T4	1	0	0	0	447	466	446	471
191	T4	1	0	0	0	467	466	447	471
192	T4	1	0	0	0	324	319	300	299
193	T4	1	0	0	0	450	425	449	445
194	T4	1	0	0	0	112	136	132	131
195	T4	1	0	0	0	343	338	342	362
196	T4	1	0	0	0	482	487	486	462
197	T4	1	0	0	0	310	334	309	314
198	T4	1	0	0	0	370	389	369	394
199	T4	1	0	0	0	284	285	265	260
200	T4	1	0	0	0	244	263	243	268
201	T4	1	0	0	0	492	473	472	468
202	T4	1	0	0	0	319	295	300	299
203	T4	1	0	0	0	503	484	483	479
204	T4	1	0	0	0	503	479	504	484
205	T4	1	0	0	0	441	437	436	461
206	T4	1	0	0	0	343	342	347	367
207	T4	1	0	0	0	387	362	367	386
208	T4	1	0	0	0	484	460	459	479
209	T4	1	0	0	0	201	202	226	206
210	T4	1	0	0	0	176	181	177	201
211	T4	1	0	0	0	275	270	250	274
212	T4	1	0	0	0	68	43	67	63
213	T4	1	0	0	0	318	343	338	342
214	T4	1	0	0	0	436	456	437	432
215	T4	1	0	0	0	437	413	432	433
216	T4	1	0	0	0	295	270	275	294
217	T4	1	0	0	0	394	395	375	370
218	T4	1	0	0	0	488	464	468	463
219	T4	1	0	0	0	303	279	283	278
220	T4	1	0	0	0	346	371	347	366
221	T4	1	0	0	0	366	367	347	342
222	T4	1	0	0	0	489	494	469	470
223	T4	1	0	0	0	356	352	332	351
224	T4	1	0	0	0	477	476	457	481
225	T4	1	0	0	0	407	412	388	408
226	T4	1	0	0	0	378	359	358	354
227	T4	1	0	0	0	263	283	258	282
228	T4	1	0	0	0	27	7	2	3
229	T4	1	0	0	0	391	387	392	367
230	T4	1	0	0	0	417	436	416	441
231	T4	1	0	0	0	517	493	497	492
232	T4	1	0	0	0	513	509	514	489
233	T4	1	0	0	0	52	32	51	27
234	T4	1	0	0	0	479	455	459	454
235	T4	1	0	0	0	387	412	388	407
236	T4	1	0	0	0	390	410	409	414
237	T4	1	0	0	0	32	7	27	8
238	T4	1	0	0	0	83	88	107	87
239	T4	1	0	0	0	43	38	42	62
240	T4	1	0	0	0	82	106	81	86
241	T4	1	0	0	0	77	57	76	52
242	T4	1	0	0	0	157	158	153	177
243	T4	1	0	0	0	163	158	183	159
244	T4	1	0	0	0	33	32	28	8
245	T4	1	0	0	0	27	28	8	3
246	T4	1	0	0	0	8	28	4	3
247	T4	1	0	0	0	18	23	19	43
248	T4	1	0	0	0	228	209	204	229
249	T4	1	0	0	0	24	25	44	49
250	T4	1	0	0	0	68	43	44	48
251	T4	1	0	0	0	81	82	62	57
252	T4	1	0	0	0	11	12	36	16
253	T4	1	0	0	0	27	7	3	8
254	T4	1	0	0	0	77	58	57	53
255	T4	1	0	0	0	99	118	94	98
256	T4	1	0	0	0	28	32	52	27
257	T4	1	0	0	0	369	389	388	393
258	T4	1	0	0	0	81	62	61	57
259	T4	1	0	0	0	63	43	39	44
260	T4	1	0	0	0	126	107	106	102
261	T4	1	0	0	0	51	31	26	27
262	T4	1	0	0	0	43	23	24	48
263	T4	1	0	0	0	212	231	207	211
264	T4	1	0	0	0	10	29	5	9
265	T4	1	0	0	0	131	136	132	156
266	T4	1	0	0	0	57	61	37	62
267	T4	1	0	0	0	91	72	96	71
268	T4	1	0	0	0	119	118	94	99
269	T4	1	0	0	0	48	43	67	68
270	T4	1	0	0	0	157	137	161	156
271	T4	1	0	0	0	103	102	107	127
272	T4	1	0	0	0	91	92	116	96
273	T4	1	0	0	0	134	153	133	158
274	T4	1	0	0	0	83	108	84	103
275	T4	1	0	0	0	314	295	294	290
276	T4	1	0	0	0	142	166	167	162
277	T4	1	0	0	0	230	205	210	229
278	T4	1	0	0	0	112	92	87	88
279	T4	1	0	0	0	202	182	207	206
280	T4	1	0	0	0	432	427	407	431
281	T4	1	0	0	0	157	181	177	176
282	T4	1	0	0	0	126	151	131	127
283	T4	1	0	0	0	168	163	143	167
284	T4	1	0	0	0	66	71	47	67
285	T4	1	0	0	0	2	6	26	1
286	T4	1	0	0	0	152	176	157	177
287	T4	1	0	0	0	364	368	344	369
288	T4	1	0	0	0	157	181	182	177
289	T4	1	0	0	0	152	156	157	176
290	T4	1	0	0	0	180	185	205	204
291	T4	1	0	0	0	164	159	183	184
292	T4	1	0	0	0	298	318	322	323
293	T4	1	0	0	0	38	58	33	57
294	T4	1	0	0	0	201	181	182	206
295	T4	1	0	0	0	103	108	84	104
296	T4	1	0	0	0	56	37	32	57
297	T4	1	0	0	0	36	17	41	16
298	T4	1	0	0	0	138	118	119	143
299	T4	1	0	0	0	247	272	267	271
300	T4	1	0	0	0	108	107	132	127
301	T4	1	0	0	0	158	178	159	154
302	T4	1	0	0	0	158	178	153	177
303	T4	1	0	0	0	169	189	165	164
304	T4	1	0	0	0	290	270	289	265
305	T4	1	0	0	0	233	238	237	213
306	T4	1	0	0	0	192	193	173	168
307	T4	1	0	0	0	9	29	5	4
308	T4	1	0	0	0	146	141	142	122
309	T4	1	0	0	0	158	182	178	177
310	T4	1	0	0	0	241	217	237	242
311	T4	1	0	0	0	214	238	233	213
312	T4	1	0	0	0	177	181	182	201
313	T4	1	0	0	0	165	190	185	189
314	T4	1	0	0	0	43	42	47	67
315	T4	1	0	0	0	27	31	26	7
316	T4	1	0	0	0	163	159	183	164
317	T4	1	0	0	0	217	237	212	236
318	T4	1	0	0	0	169	149	144	145
319	T4	1	0	0	0	127	151	132	152
320	T4	1	0	0	0	151	156	132	152
321	T4	1	0	0	0	152	156	132	157
322	T4	1	0	0	0	202	207	203	227
323	T4	1	0	0	0	403	383	407	402
324	T4	1	0	0	0	178	183	203	202
325	T4	1	0	0	0	138	158	163	139
326	T4	1	0	0	0	209	185	204	205
327	T4	1	0	0	0	342	361	337	341
328	T4	1	0	0	0	232	233	213	208
329	T4	1	0	0	0	193	212	192	217
330	T4	1	0	0	0	153	152	157	177
331	T4	1	0	0	0	27	7	26	2
332	T4	1	0	0	0	192	197	193	217
333	T4	1	0	0	0	174	193	198	194
334	T4	1	0	0	0	252	253	277	257
335	T4	1	0	0	0	188	187	212	207
336	T4	1	0	0	0	32	31	51	27
337	T4	1	0	0	0	190	189	209	185
338	T4	1	0	0	0	54	34	35	59
339	T4	1	0	0	0	230	210	235	234
340	T4	1	0	0	0	16	17	41	21
341	T4	1	0	0	0	178	182	183	202
342	T4	1	0	0	0	226	207	231	206
343	T4	1	0	0	0	183	208	203	207
344	T4	1	0	0	0	182	187	207	206
345	T4	1	0	0	0	183	207	203	202
346	T4	1	0	0	0	189	188	193	213
347	T4	1	0	0	0	50	25	49	45
348	T4	1	0	0	0	110	114	115	134
349	T4	1	0	0	0	232	233	208	228
350	T4	1	0	0	0	219	239	243	244
351	T4	1	0	0	0	290	270	294	289
352	T4	1	0	0	0	229	210	209	205
353	T4	1	0	0	0	207	208	203	227
354	T4	1	0	0	0	339	344	343	319
355	T4	1	0	0	0	88	68	87	63
356	T4	1	0	0	0	153	154	178	158
357	T4	1	0	0	0	124	123	143	119
358	T4	1	0	0	0	238	262	237	242
359	T4	1	0	0	0	229	209	204	205
360	T4	1	0	0	0	163	164	139	159
361	T4	1	0	0	0	227	232	231	207
362	T4	1	0	0	0	207	208	227	232
363	T4	1	0	0	0	365	385	389	390
364	T4	1	0	0	0	339	340	344	320
365	T4	1	0	0	0	207	182	183	187
366	T4	1	0	0	0	289	284	264	288
367	T4	1	0	0	0	226	202	227	207
368	T4	1	0	0	0	226	227	231	207
369	T4	1	0	0	0	128	108	104	109
370	T4	1	0	0	0	337	313	317	312
371	T4	1	0	0	0	109	89	85	90
372	T4	1	0	0	0	184	180	160	179
373	T4	1	0	0	0	153	152	133	157
374	T4	1	0	0	0	232	237	213	233
375	T4	1	0	0	0	24	25	20	44
376	T4	1	0	0	0	7	31	26	6
377	T4	1	0	0	0	58	33	57	53
378	T4	1	0	0	0	56	31	51	32
379	T4	1	0	0	0	18	23	42	22
380	T4	1	0	0	0	42	23	47	22
381	T4	1	0	0	0	15	39	40	35
382	T4	1	0	0	0	49	69	68	73
383	T4	1	0	0	0	92	111	116	112
384	T4	1	0	0	0	133	132	137	157
385	T4	1	0	0	0	326	302	306	301
386	T4	1	0	0	0	89	113	114	109
387	T4	1	0	0	0	44	25	20	45
388	T4	1	0	0	0	142	141	117	122
389	T4	1	0	0	0	42	37	61	62
390	T4	1	0	0	0	86	67	62	87
391	T4	1	0	0	0	103	108	104	128
392	T4	1	0	0	0	89	69	64	65
393	T4	1	0	0	0	57	56	52	32
394	T4	1	0	0	0	89	65	85	90
395	T4	1	0	0	0	82	57	58	62
396	T4	1	0	0	0	128	103	108	127
397	T4	1	0	0	0	44	43	24	48
398	T4	1	0	0	0	79	59	78	54
399	T4	1	0	0	0	59	58	78	54
400	T4	1	0	0	0	63	59	39	58
401	T4	1	0	0	0	39	59	34	58
402	T4	1	0	0	0	59	54	34	58
403	T4	1	0	0	0	76	56	51	52
404	T4	1	0	0	0	93	113	89	88
405	T4	1	0	0	0	126	127	107	102
406	T4	1	0	0	0	33	34	29	53
407	T4	1	0	0	0	166	167	191	171
408	T4	1	0	0	0	111	136	112	131
409	T4	1	0	0	0	160	184	179	159
410	T4	1	0	0	0	107	112	132	131
411	T4	1	0	0	0	33	58	34	53
412	T4	1	0	0	0	89	114	90	109
413	T4	1	0	0	0	137	136	161	156
414	T4	1	0	0	0	182	162	186	181
415	T4	1	0	0	0	33	32	57	52
416	T4	1	0	0	0	81	61	56	57
417	T4	1	0	0	0	61	41	36	37
418	T4	1	0	0	0	159	134	158	154
419	T4	1	0	0	0	77	81	101	76
420	T4	1	0	0	0	137	132	136	156
421	T4	1	0	0	0	135	160	155	159
422	T4	1	0	0	0	78	58	77	53
423	T4	1	0	0	0	77	57	52	53
424	T4	1	0	0	0	128	109	104	129
425	T4	1	0	0	0	42	46	47	66
426	T4	1	0	0	0	52	33	28	53
427	T4	1	0	0	0	81	56	76	57
428	T4	1	0	0	0	57	56	76	52
429	T4	1	0	0	0	169	168	193	188
430	T4	1	0	0	0	82	106	101	81
431	T4	1	0	0	0	82	81	101	77
432	T4	1	0	0	0	102	82	101	77
433	T4	1	0	0	0	77	57	58	82
434	T4	1	0	0	0	77	81	57	82
435	T4	1	0	0	0	87	67	62	63
436	T4	1	0	0	0	138	133	134	114
437	T4	1	0	0	0	102	106	101	82
438	T4	1	0	0	0	83	88	87	63
439	T4	1	0	0	0	142	141	137	117
440	T4	1	0	0	0	126	131	106	107
441	T4	1	0	0	0	126	131	107	127
442	T4	1	0	0	0	39	38	14	19
443	T4	1	0	0	0	8	9	4	28
444	T4	1	0	0	0	184	159	183	179
445	T4	1	0	0	0	160	179	155	159
446	T4	1	0	0	0	108	132	107	112
447	T4	1	0	0	0	89	94	114	113
448	T4	1	0	0	0	188	207	183	187
449	T4	1	0	0	0	158	178	183	159
450	T4	1	0	0	0	183	184	208	188
451	T4	1	0	0	0	190	209	210	185
452	T4	1	0	0	0	118	138	114	113
453	T4	1	0	0	0	33	32	52	28
454	T4	1	0	0	0	28	33	29	53
455	T4	1	0	0	0	128	108	132	127
456	T4	1	0	0	0	17	22	41	21
457	T4	1	0	0	0	224	219	243	244
458	T4	1	0	0	0	102	77	78	82
459	T4	1	0	0	0	10	34	35	30
460	T4	1	0	0	0	87	68	67	63
461	T4	1	0	0	0	120	119	95	100
462	T4	1	0	0	0	89	90	70	65
463	T4	1	0	0	0	110	105	109	129
464	T4	1	0	0	0	224	219	223	243
465	T4	1	0	0	0	78	58	53	54
466	T4	1	0	0	0	54	58	53	34
467	T4	1	0	0	0	54	34	53	29
468	T4	1	0	0	0	180	184	185	204
469	T4	1	0	0	0	78	77	58	82
470	T4	1	0	0	0	37	12	36	32
471	T4	1	0	0	0	65	69	64	45
472	T4	1	0	0	0	79	84	104	103
473	T4	1	0	0	0	29	34	10	30
474	T4	1	0	0	0	59	64	60	84
475	T4	1	0	0	0	79	84	80	104
476	T4	1	0	0	0	85	105	80	104
477	T4	1	0	0	0	84	85	80	104
478	T4	1	0	0	0	159	178	179	154
479	T4	1	0	0	0	208	207	183	188
480	T4	1	0	0	0	312	313	288	308
481	T4	1	0	0	0	183	203	179	178
482	T4	1	0	0	0	44	19	20	24
483	T4	1	0	0	0	285	265	290	289
484	T4	1	0	0	0	318	294	313	314
485	T4	1	0	0	0	233	258	253	257
486	T4	1	0	0	0	14	38	18	19
487	T4	1	0	0	0	203	208	204	228
488	T4	1	0	0	0	227	208	203	228
489	T4	1	0	0	0	129	153	133	134
490	T4	1	0	0	0	200	199	224	219
491	T4	1	0	0	0	133	152	132	157
492	T4	1	0	0	0	110	109	114	134
493	T4	1	0	0	0	232	228	208	227
494	T4	1	0	0	0	295	270	294	290
495	T4	1	0	0	0	196	216	197	192
496	T4	1	0	0	0	133	132	128	108
497	T4	1	0	0	0	195	194	170	175
498	T4	1	0	0	0	54	35	30	55
499	T4	1	0	0	0	189	184	164	188
500	T4	1	0	0	0	185	180	160	184
501	T4	1	0	0	0	160	180	155	179
502	T4	1	0	0	0	302	283	307	282
503	T4	1	0	0	0	129	153	128	133
504	T4	1	0	0	0	34	29	10	9
505	T4	1	0	0	0	254	230	255	235
506	T4	1	0	0	0	249	250	269	274
507	T4	1	0	0	0	262	267	287	286
508	T4	1	0	0	0	409	384	389	408
509	T4	1	0	0	0	289	270	269	265
510	T4	1	0	0	0	355	360	380	379
511	T4	1	0	0	0	318	294	293	313
512	T4	1	0	0	0	90	95	115	114
513	T4	1	0	0	0	78	83	79	103
514	T4	1	0	0	0	159	178	183	179
515	T4	1	0	0	0	59	60	55	79
516	T4	1	0	0	0	29	34	30	54
517	T4	1	0	0	0	114	133	109	113
518	T4	1	0	0	0	55	79	60	80
519	T4	1	0	0	0	54	34	30	35
520	T4	1	0	0	0	88	108	84	83
521	T4	1	0	0	0	47	66	67	42
522	T4	1	0	0	0	88	89	64	84
523	T4	1	0	0	0	64	45	44	40
524	T4	1	0	0	0	327	302	307	326
525	T4	1	0	0	0	63	64	39	59
526	T4	1	0	0	0	108	88	107	83
527	T4	1	0	0	0	54	35	55	59
528	T4	1	0	0	0	59	35	55	60
529	T4	1	0	0	0	59	35	39	34
530	T4	1	0	0	0	37	17	18	42
531	T4	1	0	0	0	208	213	209	233
532	T4	1	0	0	0	110	130	105	129
533	T4	1	0	0	0	29	10	5	30
534	T4	1	0	0	0	42	38	37	62
535	T4	1	0	0	0	89	94	69	70
536	T4	1	0	0	0	60	85	80	84
537	T4	1	0	0	0	63	83	59	58
538	T4	1	0	0	0	129	153	134	154
539	T4	1	0	0	0	158	133	134	138
540	T4	1	0	0	0	234	209	233	229
541	T4	1	0	0	0	144	125	124	120
542	T4	1	0	0	0	214	189	194	213
543	T4	1	0	0	0	75	99	94	74
544	T4	1	0	0	0	199	218	223	219
545	T4	1	0	0	0	134	153	158	154
546	T4	1	0	0	0	129	134	130	154
547	T4	1	0	0	0	189	184	209	185
548	T4	1	0	0	0	188	164	183	184
549	T4	1	0	0	0	194	189	193	213
550	T4	1	0	0	0	64	69	44	45
551	T4	1	0	0	0	84	108	109	104
552	T4	1	0	0	0	141	136	137	117
553	T4	1	0	0	0	165	189	185	184
554	T4	1	0	0	0	158	153	133	157
555	T4	1	0	0	0	230	210	234	229
556	T4	1	0	0	0	134	135	130	154
557	T4	1	0	0	0	188	184	208	189
558	T4	1	0	0	0	179	180	204	184
559	T4	1	0	0	0	228	208	209	233
560	T4	1	0	0	0	110	134	115	135
561	T4	1	0	0	0	135	130	110	134
562	T4	1	0	0	0	134	130	110	129
563	T4	1	0	0	0	236	231	212	211
564	T4	1	0	0	0	239	215	240	220
565	T4	1	0	0	0	159	179	155	154
566	T4	1	0	0	0	169	189	164	188
567	T4	1	0	0	0	140	135	159	160
568	T4	1	0	0	0	238	218	237	213
569	T4	1	0	0	0	135	159	155	154
570	T4	1	0	0	0	118	113	114	94
571	T4	1	0	0	0	119	118	114	94
572	T4	1	0	0	0	153	128	133	152
573	T4	1	0	0	0	139	114	115	119
574	T4	1	0	0	0	234	210	209	229
575	T4	1	0	0	0	224	244	225	220
576	T4	1	0	0	0	184	203	179	183
577	T4	1	0	0	0	208	203	184	183
578	T4	1	0	0	0	210	185	209	205
579	T4	1	0	0	0	208	203	204	184
580	T4	1	0	0	0	204	203	179	184
581	T4	1	0	0	0	343	323	347	342
582	T4	1	0	0	0	165	164	140	145
583	T4	1	0	0	0	193	189	169	188
584	T4	1	0	0	0	168	173	148	149
585	T4	1	0	0	0	349	344	325	324
586	T4	1	0	0	0	144	124	119	120
587	T4	1	0	0	0	95	100	99	75
588	T4	1	0	0	0	210	190	214	209
589	T4	1	0	0	0	190	195	215	214
590	T4	1	0	0	0	64	40	60	65
591	T4	1	0	0	0	14	39	19	15
592	T4	1	0	0	0	235	240	239	215
593	T4	1	0	0	0	324	299	323	319
594	T4	1	0	0	0	214	215	239	219
595	T4	1	0	0	0	286	267	287	291
596	T4	1	0	0	0	358	359	363	339
597	T4	1	0	0	0	211	231	207	206
598	T4	1	0	0	0	431	427	407	426
599	T4	1	0	0	0	235	259	239	240
600	T4	1	0	0	0	259	264	239	240
601	T4	1	0	0	0	200	224	220	219
602	T4	1	0	0	0	144	143	139	119
603	T4	1	0	0	0	344	369	345	364
604	T4	1	0	0	0	390	394	395	414
605	T4	1	0	0	0	59	60	79	84
606	T4	1	0	0	0	314	315	295	290
607	T4	1	0	0	0	228	209	229	233
608	T4	1	0	0	0	49	25	44	45
609	T4	1	0	0	0	317	293	297	292
610	T4	1	0	0	0	189	184	208	209
611	T4	1	0	0	0	194	189	169	193
612	T4	1	0	0	0	361	357	337	356
613	T4	1	0	0	0	9	33	29	28
614	T4	1	0	0	0	139	158	163	159
615	T4	1	0	0	0	229	234	230	254
616	T4	1	0	0	0	9	29	4	28
617	T4	1	0	0	0	245	270	269	250
618	T4	1	0	0	0	214	195	215	219
619	T4	1	0	0	0	352	333	332	328
620	T4	1	0	0	0	210	214	234	209
621	T4	1	0	0	0	319	339	344	320
622	T4	1	0	0	0	314	290	294	289
623	T4	1	0	0	0	70	94	75	95
624	T4	1	0	0	0	344	349	369	368
625	T4	1	0	0	0	289	264	269	288
626	T4	1	0	0	0	254	255	259	235
627	T4	1	0	0	0	235	254	234	259
628	T4	1	0	0	0	309	284	285	289
629	T4	1	0	0	0	314	310	315	290
630	T4	1	0	0	0	339	364	344	340
631	T4	1	0	0	0	289	265	269	264
632	T4	1	0	0	0	8	33	9	28
633	T4	1	0	0	0	83	59	78	79
634	T4	1	0	0	0	137	138	118	113
635	T4	1	0	0	0	109	90	85	110
636	T4	1	0	0	0	15	34	39	35
637	T4	1	0	0	0	83	88	64	84
638	T4	1	0	0	0	63	88	64	83
639	T4	1	0	0	0	89	70	69	65
640	T4	1	0	0	0	83	84	79	103
641	T4	1	0	0	0	19	39	20	15
642	T4	1	0	0	0	121	116	141	117
643	T4	1	0	0	0	81	86	61	62
644	T4	1	0	0	0	39	19	20	44
645	T4	1	0	0	0	63	58	39	38
646	T4	1	0	0	0	39	58	34	38
647	T4	1	0	0	0	38	58	34	33
648	T4	1	0	0	0	208	213	232	212
649	T4	1	0	0	0	103	83	102	78
650	T4	1	0	0	0	107	83	102	103
651	T4	1	0	0	0	83	78	58	82
652	T4	1	0	0	0	83	82	58	63
653	T4	1	0	0	0	194	174	170	175
654	T4	1	0	0	0	119	114	115	95
655	T4	1	0	0	0	63	44	39	64
656	T4	1	0	0	0	84	89	109	108
657	T4	1	0	0	0	83	64	59	84
658	T4	1	0	0	0	84	59	83	79
659	T4	1	0	0	0	63	64	59	83
660	T4	1	0	0	0	17	18	42	22
661	T4	1	0	0	0	109	134	110	129
662	T4	1	0	0	0	134	133	129	109
663	T4	1	0	0	0	133	128	129	109
664	T4	1	0	0	0	133	128	109	108
665	T4	1	0	0	0	33	13	32	8
666	T4	1	0	0	0	85	110	105	109
667	T4	1	0	0	0	85	109	105	104
668	T4	1	0	0	0	84	109	85	104
669	T4	1	0	0	0	84	89	85	109
670	T4	1	0	0	0	90	114	110	109
671	T4	1	0	0	0	137	132	113	112
672	T4	1	0	0	0	113	132	108	112
673	T4	1	0	0	0	133	132	108	113
674	T4	1	0	0	0	133	113	108	109
675	T4	1	0	0	0	89	113	109	108
676	T4	1	0	0	0	86	66	61	62
677	T4	1	0	0	0	94	98	118	93
678	T4	1	0	0	0	168	148	144	149
679	T4	1	0	0	0	137	132	133	113
680	T4	1	0	0	0	56	36	32	37
681	T4	1	0	0	0	141	161	166	142
682	T4	1	0	0	0	57	37	38	62
683	T4	1	0	0	0	82	86	62	87
684	T4	1	0	0	0	113	112	108	88
685	T4	1	0	0	0	108	112	107	88
686	T4	1	0	0	0	89	113	108	88
687	T4	1	0	0	0	89	108	84	88
688	T4	1	0	0	0	92	72	97	96
689	T4	1	0	0	0	134	133	109	114
690	T4	1	0	0	0	169	188	164	168
691	T4	1	0	0	0	249	244	225	224
692	T4	1	0	0	0	189	209	208	213
693	T4	1	0	0	0	194	170	169	189
694	T4	1	0	0	0	162	161	186	181
695	T4	1	0	0	0	374	370	369	394
696	T4	1	0	0	0	218	242	237	217
697	T4	1	0	0	0	224	244	220	219
698	T4	1	0	0	0	183	182	163	187
699	T4	1	0	0	0	208	188	212	207
700	T4	1	0	0	0	139	138	119	143
701	T4	1	0	0	0	140	139	115	120
702	T4	1	0	0	0	163	143	138	139
703	T4	1	0	0	0	210	215	235	234
704	T4	1	0	0	0	164	140	159	160
705	T4	1	0	0	0	164	159	184	160
706	T4	1	0	0	0	165	164	184	160
707	T4	1	0	0	0	240	239	244	264
708	T4	1	0	0	0	119	124	123	99
709	T4	1	0	0	0	182	187	186	162
710	T4	1	0	0	0	138	133	137	157
711	T4	1	0	0	0	158	133	138	157
712	T4	1	0	0	0	188	187	183	163
713	T4	1	0	0	0	15	39	20	40
714	T4	1	0	0	0	163	187	168	188
715	T4	1	0	0	0	234	238	233	214
716	T4	1	0	0	0	164	188	163	168
717	T4	1	0	0	0	183	182	158	163
718	T4	1	0	0	0	208	188	213	212
719	T4	1	0	0	0	188	213	212	193
720	T4	1	0	0	0	188	163	183	164
721	T4	1	0	0	0	188	189	208	213
722	T4	1	0	0	0	214	219	238	218
723	T4	1	0	0	0	157	162	182	181
724	T4	1	0	0	0	416	412	392	411
725	T4	1	0	0	0	212	231	232	207
726	T4	1	0	0	0	162	163	158	182
727	T4	1	0	0	0	162	187	163	182
728	T4	1	0	0	0	240	244	245	264
729	T4	1	0	0	0	363	362	343	367
730	T4	1	0	0	0	239	238	234	214
731	T4	1	0	0	0	250	270	269	274
732	T4	1	0	0	0	75	70	74	94
733	T4	1	0	0	0	44	40	20	39
734	T4	1	0	0	0	191	192	187	211
735	T4	1	0	0	0	173	192	197	193
736	T4	1	0	0	0	169	173	193	168
737	T4	1	0	0	0	195	200	220	219
738	T4	1	0	0	0	84	89	64	65
739	T4	1	0	0	0	210	214	215	234
740	T4	1	0	0	0	39	64	44	40
741	T4	1	0	0	0	69	49	44	45
742	T4	1	0	0	0	194	190	170	189
743	T4	1	0	0	0	194	169	174	193
744	T4	1	0	0	0	140	135	139	159
745	T4	1	0	0	0	139	135	134	159
746	T4	1	0	0	0	159	139	158	134
747	T4	1	0	0	0	139	138	158	134
748	T4	1	0	0	0	134	139	138	114
749	T4	1	0	0	0	139	138	114	119
750	T4	1	0	0	0	139	134	115	114
751	T4	1	0	0	0	139	134	135	115
752	T4	1	0	0	0	140	139	135	115
753	T4	1	0	0	0	191	171	172	196
754	T4	1	0	0	0	195	194	199	219
755	T4	1	0	0	0	195	199	200	219
756	T4	1	0	0	0	190	209	189	214
757	T4	1	0	0	0	215	239	234	214
758	T4	1	0	0	0	235	239	234	215
759	T4	1	0	0	0	235	259	234	239
760	T4	1	0	0	0	284	283	264	288
761	T4	1	0	0	0	269	273	249	274
762	T4	1	0	0	0	144	124	143	119
763	T4	1	0	0	0	315	295	319	314
764	T4	1	0	0	0	111	112	107	131
765	T4	1	0	0	0	242	262	267	243
766	T4	1	0	0	0	464	444	463	439
767	T4	1	0	0	0	194	193	198	218
768	T4	1	0	0	0	244	245	225	220
769	T4	1	0	0	0	157	137	162	161
770	T4	1	0	0	0	59	64	39	40
771	T4	1	0	0	0	14	39	15	34
772	T4	1	0	0	0	14	34	15	10
773	T4	1	0	0	0	9	34	14	10
774	T4	1	0	0	0	9	33	14	34
775	T4	1	0	0	0	14	33	38	34
776	T4	1	0	0	0	14	38	39	34
777	T4	1	0	0	0	13	33	38	14
778	T4	1	0	0	0	9	33	13	14
779	T4	1	0	0	0	197	221	217	216
780	T4	1	0	0	0	74	50	69	70
781	T4	1	0	0	0	167	168	148	143
782	T4	1	0	0	0	119	114	95	94
783	T4	1	0	0	0	84	64	60	65
784	T4	1	0	0	0	63	68	64	88
785	T4	1	0	0	0	59	64	40	60
786	T4	1	0	0	0	60	35	40	59
787	T4	1	0	0	0	64	40	65	45
788	T4	1	0	0	0	84	65	60	85
789	T4	1	0	0	0	84	89	65	85
790	T4	1	0	0	0	118	98	123	122
791	T4	1	0	0	0	70	50	69	45
792	T4	1	0	0	0	120	119	115	95
793	T4	1	0	0	0	119	123	143	118
794	T4	1	0	0	0	89	94	90	114
795	T4	1	0	0	0	90	115	110	114
796	T4	1	0	0	0	90	94	70	95
797	T4	1	0	0	0	73	49	69	74
798	T4	1	0	0	0	99	123	118	98
799	T4	1	0	0	0	148	124	144	149
800	T4	1	0	0	0	149	124	144	125
801	T4	1	0	0	0	95	119	99	100
802	T4	1	0	0	0	74	98	94	93
803	T4	1	0	0	0	95	119	94	99
804	T4	1	0	0	0	119	123	118	99
805	T4	1	0	0	0	168	149	144	169
806	T4	1	0	0	0	37	13	12	32
807	T4	1	0	0	0	165	164	145	169
808	T4	1	0	0	0	206	187	207	211
809	T4	1	0	0	0	195	175	200	199
810	T4	1	0	0	0	169	170	165	189
811	T4	1	0	0	0	170	190	165	189
812	T4	1	0	0	0	175	174	170	150
813	T4	1	0	0	0	194	174	169	170
814	T4	1	0	0	0	170	169	145	150
815	T4	1	0	0	0	170	169	165	145
816	T4	1	0	0	0	244	245	264	269
817	T4	1	0	0	0	169	173	174	193
818	T4	1	0	0	0	214	195	219	194
819	T4	1	0	0	0	190	195	214	194
820	T4	1	0	0	0	190	194	214	189
821	T4	1	0	0	0	170	174	169	150
822	T4	1	0	0	0	474	470	450	469
823	T4	1	0	0	0	240	220	245	244
824	T4	1	0	0	0	194	175	199	174
825	T4	1	0	0	0	241	221	222	246
826	T4	1	0	0	0	241	221	217	222
827	T4	1	0	0	0	249	245	225	244
828	T4	1	0	0	0	200	224	225	220
829	T4	1	0	0	0	215	195	220	219
830	T4	1	0	0	0	239	215	220	219
831	T4	1	0	0	0	250	245	225	249
832	T4	1	0	0	0	164	144	145	169
833	T4	1	0	0	0	168	164	169	144
834	T4	1	0	0	0	145	125	150	149
835	T4	1	0	0	0	169	150	149	145
836	T4	1	0	0	0	93	68	88	69
837	T4	1	0	0	0	120	125	124	100
838	T4	1	0	0	0	168	163	144	143
839	T4	1	0	0	0	163	143	139	144
840	T4	1	0	0	0	163	144	139	164
841	T4	1	0	0	0	164	139	140	144
842	T4	1	0	0	0	164	144	140	145
843	T4	1	0	0	0	168	163	164	144
844	T4	1	0	0	0	195	190	170	194
845	T4	1	0	0	0	195	175	199	194
846	T4	1	0	0	0	337	318	342	317
847	T4	1	0	0	0	191	211	187	186
848	T4	1	0	0	0	218	242	217	222
849	T4	1	0	0	0	199	198	223	218
850	T4	1	0	0	0	86	111	91	87
851	T4	1	0	0	0	218	217	237	213
852	T4	1	0	0	0	147	146	171	166
853	T4	1	0	0	0	111	92	91	87
854	T4	1	0	0	0	214	194	218	213
855	T4	1	0	0	0	218	193	217	213
856	T4	1	0	0	0	244	245	269	249
857	T4	1	0	0	0	75	50	74	70
858	T4	1	0	0	0	148	172	173	168
859	T4	1	0	0	0	199	223	224	219
860	T4	1	0	0	0	313	308	289	288
861	T4	1	0	0	0	123	147	143	142
862	T4	1	0	0	0	308	283	303	284
863	T4	1	0	0	0	369	349	374	373
864	T4	1	0	0	0	391	392	372	367
865	T4	1	0	0	0	37	17	41	36
866	T4	1	0	0	0	112	92	111	87
867	T4	1	0	0	0	437	412	436	432
868	T4	1	0	0	0	439	443	463	438
869	T4	1	0	0	0	192	212	187	211
870	T4	1	0	0	0	93	112	113	88
871	T4	1	0	0	0	123	122	142	118
872	T4	1	0	0	0	117	92	112	93
873	T4	1	0	0	0	93	73	68	69
874	T4	1	0	0	0	73	48	72	68
875	T4	1	0	0	0	174	198	199	194
876	T4	1	0	0	0	42	23	43	47
877	T4	1	0	0	0	172	192	191	196
878	T4	1	0	0	0	37	33	13	32
879	T4	1	0	0	0	145	125	149	144
880	T4	1	0	0	0	117	112	113	93
881	T4	1	0	0	0	148	147	143	123
882	T4	1	0	0	0	148	123	143	124
883	T4	1	0	0	0	168	173	149	169
884	T4	1	0	0	0	169	173	149	174
885	T4	1	0	0	0	169	174	149	150
886	T4	1	0	0	0	93	74	69	94
887	T4	1	0	0	0	83	87	82	63
888	T4	1	0	0	0	49	68	48	73
889	T4	1	0	0	0	67	42	66	62
890	T4	1	0	0	0	67	43	62	63
891	T4	1	0	0	0	117	97	92	93
892	T4	1	0	0	0	48	43	47	67
893	T4	1	0	0	0	294	269	293	289
894	T4	1	0	0	0	142	117	137	118
895	T4	1	0	0	0	94	118	113	93
896	T4	1	0	0	0	94	113	89	93
897	T4	1	0	0	0	93	94	69	89
898	T4	1	0	0	0	67	43	42	62
899	T4	1	0	0	0	49	68	44	48
900	T4	1	0	0	0	18	23	43	42
901	T4	1	0	0	0	62	58	38	57
902	T4	1	0	0	0	63	68	44	64
903	T4	1	0	0	0	68	69	44	64
904	T4	1	0	0	0	49	69	44	68
905	T4	1	0	0	0	216	236	212	211
906	T4	1	0	0	0	66	41	61	42
907	T4	1	0	0	0	137	117	112	113
908	T4	1	0	0	0	74	98	93	73
909	T4	1	0	0	0	123	147	142	122
910	T4	1	0	0	0	241	222	217	242
911	T4	1	0	0	0	138	142	137	118
912	T4	1	0	0	0	138	143	142	118
913	T4	1	0	0	0	123	142	143	118
914	T4	1	0	0	0	137	142	162	161
915	T4	1	0	0	0	172	192	173	168
916	T4	1	0	0	0	141	116	136	117
917	T4	1	0	0	0	291	296	292	316
918	T4	1	0	0	0	374	350	370	375
919	T4	1	0	0	0	242	243	247	223
920	T4	1	0	0	0	8	13	32	12
921	T4	1	0	0	0	12	17	36	16
922	T4	1	0	0	0	32	12	31	7
923	T4	1	0	0	0	142	122	117	118
924	T4	1	0	0	0	122	146	141	121
925	T4	1	0	0	0	72	68	67	92
926	T4	1	0	0	0	93	68	92	88
927	T4	1	0	0	0	39	38	19	43
928	T4	1	0	0	0	122	121	141	117
929	T4	1	0	0	0	162	166	186	161
930	T4	1	0	0	0	8	12	32	7
931	T4	1	0	0	0	92	72	91	67
932	T4	1	0	0	0	141	136	161	137
933	T4	1	0	0	0	97	73	72	92
934	T4	1	0	0	0	56	61	36	37
935	T4	1	0	0	0	37	57	33	32
936	T4	1	0	0	0	41	21	22	46
937	T4	1	0	0	0	92	91	116	111
938	T4	1	0	0	0	14	38	13	18
939	T4	1	0	0	0	66	46	47	71
940	T4	1	0	0	0	117	136	137	112
941	T4	1	0	0	0	112	93	92	88
942	T4	1	0	0	0	43	23	19	24
943	T4	1	0	0	0	118	98	117	93
944	T4	1	0	0	0	118	117	113	93
945	T4	1	0	0	0	194	198	199	218
946	T4	1	0	0	0	174	173	198	193
947	T4	1	0	0	0	198	193	197	217
948	T4	1	0	0	0	37	17	13	18
949	T4	1	0	0	0	37	17	12	13
950	T4	1	0	0	0	32	36	31	12
951	T4	1	0	0	0	12	36	31	11
952	T4	1	0	0	0	56	36	31	32
953	T4	1	0	0	0	42	46	22	47
954	T4	1	0	0	0	214	218	238	213
955	T4	1	0	0	0	173	197	198	193
956	T4	1	0	0	0	91	72	92	96
957	T4	1	0	0	0	92	73	72	68
958	T4	1	0	0	0	93	73	92	68
959	T4	1	0	0	0	86	66	62	67
960	T4	1	0	0	0	91	67	66	86
961	T4	1	0	0	0	91	87	67	86
962	T4	1	0	0	0	87	106	82	86
963	T4	1	0	0	0	107	106	82	87
964	T4	1	0	0	0	83	87	107	82
965	T4	1	0	0	0	56	61	37	57
966	T4	1	0	0	0	72	48	67	68
967	T4	1	0	0	0	44	43	19	24
968	T4	1	0	0	0	38	18	19	43
969	T4	1	0	0	0	38	18	43	42
970	T4	1	0	0	0	72	48	47	67
971	T4	1	0	0	0	38	57	33	37
972	T4	1	0	0	0	38	33	13	37
973	T4	1	0	0	0	39	43	19	44
974	T4	1	0	0	0	43	23	48	47
975	T4	1	0	0	0	63	38	39	43
976	T4	1	0	0	0	67	71	47	72
977	T4	1	0	0	0	37	17	36	12
978	T4	1	0	0	0	42	41	61	37
979	T4	1	0	0	0	37	42	41	17
980	T4	1	0	0	0	17	42	41	22
981	T4	1	0	0	0	41	46	22	42
982	T4	1	0	0	0	41	46	42	66
983	T4	1	0	0	0	38	37	18	42
984	T4	1	0	0	0	62	82	87	63
985	T4	1	0	0	0	146	141	166	142
986	T4	1	0	0	0	67	87	91	92
987	T4	1	0	0	0	43	38	62	63
988	T4	1	0	0	0	63	58	38	62
989	T4	1	0	0	0	82	62	58	63
990	T4	1	0	0	0	81	86	62	82
991	T4	1	0	0	0	142	141	161	137
992	T4	1	0	0	0	147	171	167	166
993	T4	1	0	0	0	147	167	148	143
994	T4	1	0	0	0	117	98	97	93
995	T4	1	0	0	0	67	72	91	71
996	T4	1	0	0	0	66	67	91	71
997	T4	1	0	0	0	97	73	92	93
998	T4	1	0	0	0	194	193	218	213
999	T4	1	0	0	0	439	464	440	459
1000	T4	1	0	0	0	118	98	122	117
1001	T4	1	0	0	0	117	98	122	97
1002	T4	1	0	0	0	246	247	242	266
1003	T4	1	0	0	0	137	118	117	113
1004	T4	1	0	0	0	143	163	138	162
1005	T4	1	0	0	0	196	216	192	191
1006	T4	1	0	0	0	117	97	121	116
1007	T4	1	0	0	0	316	297	292	317
1008	T4	1	0	0	0	162	158	163	138
1009	T4	1	0	0	0	157	158	162	138
1010	T4	1	0	0	0	157	138	162	137
1011	T4	1	0	0	0	142	162	138	137
1012	T4	1	0	0	0	143	162	138	142
1013	T4	1	0	0	0	216	211	192	191
1014	T4	1	0	0	0	147	166	167	142
1015	T4	1	0	0	0	194	218	199	219
1016	T4	1	0	0	0	163	167	187	162
1017	T4	1	0	0	0	218	193	198	217
1018	T4	1	0	0	0	236	231	232	212
1019	T4	1	0	0	0	197	216	217	192
1020	T4	1	0	0	0	238	242	237	218
1021	T4	1	0	0	0	211	187	207	212
1022	T4	1	0	0	0	214	194	219	218
1023	T4	1	0	0	0	318	294	298	293
1024	T4	1	0	0	0	107	106	87	111
1025	T4	1	0	0	0	107	111	87	112
1026	T4	1	0	0	0	106	111	107	131
1027	T4	1	0	0	0	333	334	338	314
1028	T4	1	0	0	0	223	219	218	243
1029	T4	1	0	0	0	218	219	238	243
1030	T4	1	0	0	0	219	239	238	243
1031	T4	1	0	0	0	370	365	389	390
1032	T4	1	0	0	0	404	384	379	380
1033	T4	1	0	0	0	238	262	242	243
1034	T4	1	0	0	0	238	243	242	218
1035	T4	1	0	0	0	87	106	86	111
1036	T4	1	0	0	0	147	171	172	167
1037	T4	1	0	0	0	167	166	186	162
1038	T4	1	0	0	0	142	166	162	161
1039	T4	1	0	0	0	216	221	217	241
1040	T4	1	0	0	0	167	172	148	168
1041	T4	1	0	0	0	257	281	262	282
1042	T4	1	0	0	0	272	291	271	296
1043	T4	1	0	0	0	216	217	236	241
1044	T4	1	0	0	0	236	217	237	241
1045	T4	1	0	0	0	196	221	197	216
1046	T4	1	0	0	0	147	146	142	122
1047	T4	1	0	0	0	474	473	493	469
1048	T4	1	0	0	0	116	111	136	112
1049	T4	1	0	0	0	92	97	117	116
1050	T4	1	0	0	0	147	146	166	142
1051	T4	1	0	0	0	487	467	468	492
1052	T4	1	0	0	0	507	506	487	511
1053	T4	1	0	0	0	321	322	297	317
1054	T4	1	0	0	0	217	236	212	216
1055	T4	1	0	0	0	301	277	281	276
1056	T4	1	0	0	0	117	116	136	112
1057	T4	1	0	0	0	92	116	117	112
1058	T4	1	0	0	0	241	246	242	266
1059	T4	1	0	0	0	311	316	292	312
1060	T4	1	0	0	0	292	312	288	287
1061	T4	1	0	0	0	371	372	347	367
1062	T4	1	0	0	0	334	358	333	338
1063	T4	1	0	0	0	297	292	293	273
1064	T4	1	0	0	0	286	267	291	266
1065	T4	1	0	0	0	117	97	122	121
1066	T4	1	0	0	0	222	223	242	247
1067	T4	1	0	0	0	217	216	212	192
1068	T4	1	0	0	0	167	187	192	168
1069	T4	1	0	0	0	172	167	192	168
1070	T4	1	0	0	0	216	211	212	192
1071	T4	1	0	0	0	147	172	148	167
1072	T4	1	0	0	0	167	192	187	191
1073	T4	1	0	0	0	167	162	143	142
1074	T4	1	0	0	0	167	163	143	162
1075	T4	1	0	0	0	187	167	186	162
1076	T4	1	0	0	0	163	168	187	167
1077	T4	1	0	0	0	173	172	197	192
1078	T4	1	0	0	0	172	197	192	196
1079	T4	1	0	0	0	197	222	217	221
1080	T4	1	0	0	0	187	191	186	167
1081	T4	1	0	0	0	167	191	186	166
1082	T4	1	0	0	0	168	187	192	188
1083	T4	1	0	0	0	188	212	187	192
1084	T4	1	0	0	0	188	212	192	193
1085	T4	1	0	0	0	168	192	193	188
1086	T4	1	0	0	0	172	192	167	191
1087	T4	1	0	0	0	313	333	338	314
1088	T4	1	0	0	0	218	198	222	217
1089	T4	1	0	0	0	198	197	222	217
1090	T4	1	0	0	0	218	198	223	222
1091	T4	1	0	0	0	218	242	222	223
1092	T4	1	0	0	0	246	222	242	247
1093	T4	1	0	0	0	243	248	247	223
1094	T4	1	0	0	0	224	243	223	248
1095	T4	1	0	0	0	224	244	248	249
1096	T4	1	0	0	0	224	244	243	248
1097	T4	1	0	0	0	247	267	242	266
1098	T4	1	0	0	0	266	267	242	262
1099	T4	1	0	0	0	311	291	292	316
1100	T4	1	0	0	0	309	333	308	313
1101	T4	1	0	0	0	287	267	292	291
1102	T4	1	0	0	0	242	243	267	247
1103	T4	1	0	0	0	243	248	267	247
1104	T4	1	0	0	0	337	332	312	336
1105	T4	1	0	0	0	294	270	269	289
1106	T4	1	0	0	0	467	462	442	466
1107	T4	1	0	0	0	312	316	336	311
1108	T4	1	0	0	0	269	293	273	274
1109	T4	1	0	0	0	337	338	313	333
1110	T4	1	0	0	0	351	327	331	326
1111	T4	1	0	0	0	316	321	297	317
1112	T4	1	0	0	0	382	358	357	377
1113	T4	1	0	0	0	267	248	272	247
1114	T4	1	0	0	0	317	342	337	341
1115	T4	1	0	0	0	336	312	311	331
1116	T4	1	0	0	0	318	338	337	342
1117	T4	1	0	0	0	292	312	287	311
1118	T4	1	0	0	0	356	332	337	336
1119	T4	1	0	0	0	318	299	298	294
1120	T4	1	0	0	0	342	322	317	318
1121	T4	1	0	0	0	278	282	302	277
1122	T4	1	0	0	0	323	318	322	342
1123	T4	1	0	0	0	317	341	316	321
1124	T4	1	0	0	0	366	371	347	367
1125	T4	1	0	0	0	317	341	337	336
1126	T4	1	0	0	0	341	346	322	342
1127	T4	1	0	0	0	343	348	344	368
1128	T4	1	0	0	0	347	323	322	342
1129	T4	1	0	0	0	296	297	292	316
1130	T4	1	0	0	0	287	267	268	292
1131	T4	1	0	0	0	369	394	389	393
1132	T4	1	0	0	0	371	366	391	367
1133	T4	1	0	0	0	416	441	421	417
1134	T4	1	0	0	0	516	517	497	492
1135	T4	1	0	0	0	416	392	396	391
1136	T4	1	0	0	0	524	519	500	499
1137	T4	1	0	0	0	346	366	347	342
1138	T4	1	0	0	0	272	292	296	297
1139	T4	1	0	0	0	463	462	443	467
1140	T4	1	0	0	0	387	392	388	412
1141	T4	1	0	0	0	442	437	441	461
1142	T4	1	0	0	0	367	362	342	366
1143	T4	1	0	0	0	247	271	267	266
1144	T4	1	0	0	0	246	271	247	266
1145	T4	1	0	0	0	346	347	322	342
1146	T4	1	0	0	0	516	497	496	492
1147	T4	1	0	0	0	492	497	496	472
1148	T4	1	0	0	0	261	242	237	262
1149	T4	1	0	0	0	294	270	274	269
1150	T4	1	0	0	0	317	293	292	312
1151	T4	1	0	0	0	296	321	297	316
1152	T4	1	0	0	0	480	485	504	484
1153	T4	1	0	0	0	294	270	275	274
1154	T4	1	0	0	0	331	356	332	351
1155	T4	1	0	0	0	239	264	263	244
1156	T4	1	0	0	0	263	262	243	267
1157	T4	1	0	0	0	239	263	243	244
1158	T4	1	0	0	0	239	259	263	264
1159	T4	1	0	0	0	321	341	322	317
1160	T4	1	0	0	0	362	337	342	361
1161	T4	1	0	0	0	444	419	443	439
1162	T4	1	0	0	0	275	295	294	299
1163	T4	1	0	0	0	343	319	323	318
1164	T4	1	0	0	0	431	451	427	426
1165	T4	1	0	0	0	437	457	433	432
1166	T4	1	0	0	0	306	307	287	282
1167	T4	1	0	0	0	236	241	237	261
1168	T4	1	0	0	0	261	236	256	237
1169	T4	1	0	0	0	262	267	286	266
1170	T4	1	0	0	0	357	338	337	333
1171	T4	1	0	0	0	516	511	492	491
1172	T4	1	0	0	0	298	294	274	293
1173	T4	1	0	0	0	239	263	238	243
1174	T4	1	0	0	0	341	361	337	336
1175	T4	1	0	0	0	402	378	382	377
1176	T4	1	0	0	0	321	346	322	341
1177	T4	1	0	0	0	366	386	391	367
1178	T4	1	0	0	0	448	443	447	467
1179	T4	1	0	0	0	412	413	388	408
1180	T4	1	0	0	0	368	349	369	373
1181	T4	1	0	0	0	229	233	234	253
1182	T4	1	0	0	0	427	407	426	402
1183	T4	1	0	0	0	313	308	312	332
1184	T4	1	0	0	0	344	364	345	340
1185	T4	1	0	0	0	312	313	293	288
1186	T4	1	0	0	0	313	289	293	288
1187	T4	1	0	0	0	348	367	347	372
1188	T4	1	0	0	0	444	420	424	419
1189	T4	1	0	0	0	275	294	274	299
1190	T4	1	0	0	0	298	299	274	294
1191	T4	1	0	0	0	263	287	262	267
1192	T4	1	0	0	0	289	284	265	264
1193	T4	1	0	0	0	348	349	324	344
1194	T4	1	0	0	0	418	399	398	394
1195	T4	1	0	0	0	286	291	287	311
1196	T4	1	0	0	0	294	269	274	293
1197	T4	1	0	0	0	397	392	373	372
1198	T4	1	0	0	0	384	388	389	408
1199	T4	1	0	0	0	415	410	390	414
1200	T4	1	0	0	0	467	486	491	487
1201	T4	1	0	0	0	317	316	336	312
1202	T4	1	0	0	0	317	336	337	312
1203	T4	1	0	0	0	287	268	288	292
1204	T4	1	0	0	0	389	388	413	408
1205	T4	1	0	0	0	440	460	464	465
1206	T4	1	0	0	0	268	273	292	272
1207	T4	1	0	0	0	459	460	464	440
1208	T4	1	0	0	0	374	394	369	393
1209	T4	1	0	0	0	307	302	327	303
1210	T4	1	0	0	0	344	340	345	320
1211	T4	1	0	0	0	419	438	439	414
1212	T4	1	0	0	0	429	433	428	409
1213	T4	1	0	0	0	264	288	283	263
1214	T4	1	0	0	0	411	407	406	431
1215	T4	1	0	0	0	469	489	493	494
1216	T4	1	0	0	0	357	333	337	332
1217	T4	1	0	0	0	517	522	521	497
1218	T4	1	0	0	0	458	438	457	433
1219	T4	1	0	0	0	417	437	436	441
1220	T4	1	0	0	0	478	454	459	458
1221	T4	1	0	0	0	467	491	472	492
1222	T4	1	0	0	0	444	439	420	419
1223	T4	1	0	0	0	510	509	490	514
1224	T4	1	0	0	0	438	413	418	437
1225	T4	1	0	0	0	458	434	438	433
1226	T4	1	0	0	0	508	483	488	507
1227	T4	1	0	0	0	482	462	486	481
1228	T4	1	0	0	0	452	433	428	453
1229	T4	1	0	0	0	411	416	391	392
1230	T4	1	0	0	0	487	462	463	467
1231	T4	1	0	0	0	517	493	518	498
1232	T4	1	0	0	0	462	461	442	466
1233	T4	1	0	0	0	278	254	279	259
1234	T4	1	0	0	0	308	283	284	288
1235	T4	1	0	0	0	313	294	293	289
1236	T4	1	0	0	0	463	444	443	439
1237	T4	1	0	0	0	460	484	459	464
1238	T4	1	0	0	0	338	339	343	319
1239	T4	1	0	0	0	362	366	367	386
1240	T4	1	0	0	0	473	449	448	468
1241	T4	1	0	0	0	487	512	492	488
1242	T4	1	0	0	0	481	462	486	461
1243	T4	1	0	0	0	438	413	437	433
1244	T4	1	0	0	0	516	521	497	517
1245	T4	1	0	0	0	467	466	471	491
1246	T4	1	0	0	0	502	501	482	506
1247	T4	1	0	0	0	419	395	399	394
1248	T4	1	0	0	0	417	412	392	416
1249	T4	1	0	0	0	422	417	397	421
1250	T4	1	0	0	0	517	513	518	493
1251	T4	1	0	0	0	513	494	518	493
1252	T4	1	0	0	0	507	483	487	482
1253	T4	1	0	0	0	513	488	493	512
1254	T4	1	0	0	0	503	483	508	507
1255	T4	1	0	0	0	418	419	399	394
1256	T4	1	0	0	0	396	391	372	371
1257	T4	1	0	0	0	447	443	448	423
1258	T4	1	0	0	0	459	435	434	454
1259	T4	1	0	0	0	442	441	446	466
1260	T4	1	0	0	0	245	265	264	269
1261	T4	1	0	0	0	448	467	447	472
1262	T4	1	0	0	0	468	443	448	467
1263	T4	1	0	0	0	472	467	447	471
1264	T4	1	0	0	0	396	392	372	391
1265	T4	1	0	0	0	491	496	471	472
1266	T4	1	0	0	0	383	388	364	384
1267	T4	1	0	0	0	467	491	471	472
1268	T4	1	0	0	0	443	462	442	467
1269	T4	1	0	0	0	502	478	483	482
1270	T4	1	0	0	0	416	421	397	417
1271	T4	1	0	0	0	417	392	397	416
1272	T4	1	0	0	0	397	392	396	416
1273	T4	1	0	0	0	416	421	396	397
1274	T4	1	0	0	0	397	392	372	396
1275	T4	1	0	0	0	423	442	447	443
1276	T4	1	0	0	0	499	518	498	523
1277	T4	1	0	0	0	492	497	472	473
1278	T4	1	0	0	0	349	345	325	344
1279	T4	1	0	0	0	469	488	468	493
1280	T4	1	0	0	0	442	417	422	441
1281	T4	1	0	0	0	422	417	421	441
1282	T4	1	0	0	0	422	441	421	446
1283	T4	1	0	0	0	442	441	422	446
1284	T4	1	0	0	0	374	394	393	398
1285	T4	1	0	0	0	495	470	475	494
1286	T4	1	0	0	0	245	270	265	269
1287	T4	1	0	0	0	422	442	446	447
1288	T4	1	0	0	0	447	442	446	466
1289	T4	1	0	0	0	467	442	447	466
1290	T4	1	0	0	0	443	442	447	467
1291	T4	1	0	0	0	422	442	447	423
1292	T4	1	0	0	0	445	425	449	444
1293	T4	1	0	0	0	324	320	300	319
1294	T4	1	0	0	0	393	373	374	398
1295	T4	1	0	0	0	468	467	472	492
1296	T4	1	0	0	0	516	521	496	497
1297	T4	1	0	0	0	499	518	523	519
1298	T4	1	0	0	0	522	498	497	517
1299	T4	1	0	0	0	499	494	498	518
1300	T4	1	0	0	0	495	514	519	515
1301	T4	1	0	0	0	344	324	319	320
1302	T4	1	0	0	0	476	456	457	481
1303	T4	1	0	0	0	264	288	268	269
1304	T4	1	0	0	0	457	477	453	452
1305	T4	1	0	0	0	495	494	475	499
1306	T4	1	0	0	0	514	489	490	494
1307	T4	1	0	0	0	368	348	349	373
1308	T4	1	0	0	0	468	467	448	472
1309	T4	1	0	0	0	470	469	474	494
1310	T4	1	0	0	0	464	488	489	484
1311	T4	1	0	0	0	518	494	514	519
1312	T4	1	0	0	0	484	485	509	489
1313	T4	1	0	0	0	520	495	500	519
1314	T4	1	0	0	0	373	368	348	372
1315	T4	1	0	0	0	469	470	450	445
1316	T4	1	0	0	0	267	248	268	272
1317	T4	1	0	0	0	240	245	265	264
1318	T4	1	0	0	0	508	484	509	489
1319	T4	1	0	0	0	484	483	459	464
1320	T4	1	0	0	0	298	293	274	273
1321	T4	1	0	0	0	453	457	452	433
1322	T4	1	0	0	0	423	443	418	442
1323	T4	1	0	0	0	467	487	491	492
1324	T4	1	0	0	0	322	318	298	317
1325	T4	1	0	0	0	318	293	298	317
1326	T4	1	0	0	0	298	293	297	317
1327	T4	1	0	0	0	322	298	297	317
1328	T4	1	0	0	0	297	293	298	273
1329	T4	1	0	0	0	479	460	459	455
1330	T4	1	0	0	0	302	282	306	301
1331	T4	1	0	0	0	284	265	285	289
1332	T4	1	0	0	0	399	400	375	395
1333	T4	1	0	0	0	394	399	375	395
1334	T4	1	0	0	0	304	284	279	280
1335	T4	1	0	0	0	370	390	394	395
1336	T4	1	0	0	0	370	345	350	369
1337	T4	1	0	0	0	424	400	419	420
1338	T4	1	0	0	0	393	389	388	413
1339	T4	1	0	0	0	422	423	418	442
1340	T4	1	0	0	0	314	339	319	315
1341	T4	1	0	0	0	414	395	419	394
1342	T4	1	0	0	0	467	462	486	487
1343	T4	1	0	0	0	319	299	323	318
1344	T4	1	0	0	0	243	248	268	267
1345	T4	1	0	0	0	374	370	350	369
1346	T4	1	0	0	0	422	417	398	397
1347	T4	1	0	0	0	348	344	324	343
1348	T4	1	0	0	0	468	444	448	443
1349	T4	1	0	0	0	474	475	450	470
1350	T4	1	0	0	0	244	248	249	268
1351	T4	1	0	0	0	420	400	419	395
1352	T4	1	0	0	0	443	448	423	424
1353	T4	1	0	0	0	288	283	263	287
1354	T4	1	0	0	0	364	369	345	365
1355	T4	1	0	0	0	268	248	273	272
1356	T4	1	0	0	0	429	409	428	404
1357	T4	1	0	0	0	392	368	373	372
1358	T4	1	0	0	0	313	309	289	308
1359	T4	1	0	0	0	401	406	381	382
1360	T4	1	0	0	0	465	484	460	464
1361	T4	1	0	0	0	300	295	275	299
1362	T4	1	0	0	0	500	495	475	499
1363	T4	1	0	0	0	268	273	293	292
1364	T4	1	0	0	0	268	293	288	292
1365	T4	1	0	0	0	449	473	469	468
1366	T4	1	0	0	0	445	469	449	450
1367	T4	1	0	0	0	522	518	498	517
1368	T4	1	0	0	0	350	345	325	349
1369	T4	1	0	0	0	343	362	342	367
1370	T4	1	0	0	0	468	449	448	444
1371	T4	1	0	0	0	425	449	444	424
1372	T4	1	0	0	0	443	448	424	444
1373	T4	1	0	0	0	444	448	424	449
1374	T4	1	0	0	0	455	430	435	454
1375	T4	1	0	0	0	267	268	292	272
1376	T4	1	0	0	0	263	267	243	268
1377	T4	1	0	0	0	419	400	399	395
1378	T4	1	0	0	0	508	484	489	488
1379	T4	1	0	0	0	468	469	449	444
1380	T4	1	0	0	0	435	430	434	454
1381	T4	1	0	0	0	404	385	409	384
1382	T4	1	0	0	0	444	469	449	445
1383	T4	1	0	0	0	469	474	449	450
1384	T4	1	0	0	0	514	490	495	494
1385	T4	1	0	0	0	317	313	293	312
1386	T4	1	0	0	0	525	520	500	524
1387	T4	1	0	0	0	406	407	387	382
1388	T4	1	0	0	0	519	494	495	499
1389	T4	1	0	0	0	460	435	459	455
1390	T4	1	0	0	0	319	294	318	314
1391	T4	1	0	0	0	385	384	389	409
1392	T4	1	0	0	0	362	382	363	358
1393	T4	1	0	0	0	485	465	489	484
1394	T4	1	0	0	0	519	495	500	499
1395	T4	1	0	0	0	337	318	317	313
1396	T4	1	0	0	0	339	344	363	343
1397	T4	1	0	0	0	449	473	474	469
1398	T4	1	0	0	0	229	253	234	254
1399	T4	1	0	0	0	387	407	388	383
1400	T4	1	0	0	0	475	494	474	499
1401	T4	1	0	0	0	474	499	494	498
1402	T4	1	0	0	0	256	252	251	276
1403	T4	1	0	0	0	475	470	474	494
1404	T4	1	0	0	0	320	295	319	315
1405	T4	1	0	0	0	522	523	498	518
1406	T4	1	0	0	0	458	477	453	457
1407	T4	1	0	0	0	464	469	444	445
1408	T4	1	0	0	0	499	494	518	519
1409	T4	1	0	0	0	430	435	434	410
1410	T4	1	0	0	0	284	280	285	260
1411	T4	1	0	0	0	343	318	323	342
1412	T4	1	0	0	0	320	295	300	319
1413	T4	1	0	0	0	368	373	393	392
1414	T4	1	0	0	0	443	424	423	419
1415	T4	1	0	0	0	325	320	300	324
1416	T4	1	0	0	0	354	359	334	335
1417	T4	1	0	0	0	345	325	344	320
1418	T4	1	0	0	0	344	325	324	320
1419	T4	1	0	0	0	338	339	363	343
1420	T4	1	0	0	0	425	400	424	420
1421	T4	1	0	0	0	287	263	282	283
1422	T4	1	0	0	0	497	498	473	493
1423	T4	1	0	0	0	444	424	443	419
1424	T4	1	0	0	0	393	413	388	412
1425	T4	1	0	0	0	469	473	493	468
1426	T4	1	0	0	0	364	384	389	365
1427	T4	1	0	0	0	393	413	417	418
1428	T4	1	0	0	0	414	413	438	433
1429	T4	1	0	0	0	278	283	303	302
1430	T4	1	0	0	0	418	394	393	413
1431	T4	1	0	0	0	244	243	248	268
1432	T4	1	0	0	0	268	273	249	269
1433	T4	1	0	0	0	248	273	249	268
1434	T4	1	0	0	0	445	420	425	444
1435	T4	1	0	0	0	268	288	293	269
1436	T4	1	0	0	0	269	293	268	273
1437	T4	1	0	0	0	264	288	263	268
1438	T4	1	0	0	0	263	288	287	268
1439	T4	1	0	0	0	263	268	287	267
1440	T4	1	0	0	0	244	264	263	268
1441	T4	1	0	0	0	368	369	388	393
1442	T4	1	0	0	0	348	343	347	367
1443	T4	1	0	0	0	422	418	417	442
1444	T4	1	0	0	0	368	367	348	372
1445	T4	1	0	0	0	319	299	318	294
1446	T4	1	0	0	0	319	295	299	294
1447	T4	1	0	0	0	319	295	294	314
1448	T4	1	0	0	0	314	310	290	309
1449	T4	1	0	0	0	388	368	393	392
1450	T4	1	0	0	0	343	348	368	367
1451	T4	1	0	0	0	363	343	368	367
1452	T4	1	0	0	0	468	444	443	463
1453	T4	1	0	0	0	461	457	462	437
1454	T4	1	0	0	0	392	367	368	372
1455	T4	1	0	0	0	343	324	323	319
1456	T4	1	0	0	0	348	324	323	343
1457	T4	1	0	0	0	348	323	347	343
1458	T4	1	0	0	0	434	414	438	433
1459	T4	1	0	0	0	417	393	392	412
1460	T4	1	0	0	0	473	493	468	492
1461	T4	1	0	0	0	343	344	324	319
1462	T4	1	0	0	0	362	363	338	358
1463	T4	1	0	0	0	309	285	290	289
1464	T4	1	0	0	0	474	493	498	494
1465	T4	1	0	0	0	392	393	388	412
1466	T4	1	0	0	0	493	488	468	492
1467	T4	1	0	0	0	417	413	393	412
1468	T4	1	0	0	0	423	399	398	418
1469	T4	1	0	0	0	497	493	473	492
1470	T4	1	0	0	0	363	343	344	368
1471	T4	1	0	0	0	369	345	350	349
1472	T4	1	0	0	0	374	369	350	349
1473	T4	1	0	0	0	369	345	349	344
1474	T4	1	0	0	0	495	514	494	519
1475	T4	1	0	0	0	517	498	497	493
1476	T4	1	0	0	0	314	294	313	289
1477	T4	1	0	0	0	398	393	417	418
1478	T4	1	0	0	0	369	373	374	393
1479	T4	1	0	0	0	368	373	369	393
1480	T4	1	0	0	0	417	393	397	392
1481	T4	1	0	0	0	417	398	397	393
1482	T4	1	0	0	0	374	399	394	398
1483	T4	1	0	0	0	374	399	375	394
1484	T4	1	0	0	0	415	395	420	419
1485	T4	1	0	0	0	423	424	399	419
1486	T4	1	0	0	0	474	493	494	469
1487	T4	1	0	0	0	393	394	389	413
1488	T4	1	0	0	0	415	395	419	414
1489	T4	1	0	0	0	422	398	418	423
1490	T4	1	0	0	0	422	398	417	418
1491	T4	1	0	0	0	443	419	423	418
1492	T4	1	0	0	0	423	419	399	418
1493	T4	1	0	0	0	493	494	518	498
1494	T4	1	0	0	0	499	519	523	524
1495	T4	1	0	0	0	429	409	404	405
1496	T4	1	0	0	0	307	306	331	326
1497	T4	1	0	0	0	495	490	470	494
1498	T4	1	0	0	0	429	410	434	409
1499	T4	1	0	0	0	309	308	304	284
1500	T4	1	0	0	0	286	306	287	282
1501	T4	1	0	0	0	436	412	431	432
1502	T4	1	0	0	0	524	520	500	519
1503	T4	1	0	0	0	483	484	459	479
1504	T4	1	0	0	0	356	352	351	376
1505	T4	1	0	0	0	458	457	453	433
1506	T4	1	0	0	0	452	428	432	427
1507	T4	1	0	0	0	427	432	407	408
1508	T4	1	0	0	0	428	432	427	408
1509	T4	1	0	0	0	468	444	463	464
1510	T4	1	0	0	0	459	434	439	458
1511	T4	1	0	0	0	419	418	443	438
1512	T4	1	0	0	0	462	438	443	442
1513	T4	1	0	0	0	476	452	456	451
1514	T4	1	0	0	0	363	338	343	362
1515	T4	1	0	0	0	439	438	463	458
1516	T4	1	0	0	0	514	489	494	513
1517	T4	1	0	0	0	504	484	509	508
1518	T4	1	0	0	0	459	434	458	454
1519	T4	1	0	0	0	387	388	363	383
1520	T4	1	0	0	0	484	485	460	480
1521	T4	1	0	0	0	465	489	469	470
1522	T4	1	0	0	0	517	513	493	512
1523	T4	1	0	0	0	478	479	459	454
1524	T4	1	0	0	0	307	312	288	308
1525	T4	1	0	0	0	461	456	437	436
1526	T4	1	0	0	0	469	464	468	488
1527	T4	1	0	0	0	444	464	468	469
1528	T4	1	0	0	0	487	482	463	462
1529	T4	1	0	0	0	484	488	483	464
1530	T4	1	0	0	0	262	286	287	282
1531	T4	1	0	0	0	483	484	508	488
1532	T4	1	0	0	0	503	483	484	508
1533	T4	1	0	0	0	377	358	357	353
1534	T4	1	0	0	0	279	255	260	259
1535	T4	1	0	0	0	308	284	289	288
1536	T4	1	0	0	0	257	252	256	276
1537	T4	1	0	0	0	314	338	318	319
1538	T4	1	0	0	0	337	333	313	332
1539	T4	1	0	0	0	381	362	357	382
1540	T4	1	0	0	0	430	410	429	405
1541	T4	1	0	0	0	359	364	363	339
1542	T4	1	0	0	0	357	352	356	376
1543	T4	1	0	0	0	264	283	259	263
1544	T4	1	0	0	0	338	337	342	362
1545	T4	1	0	0	0	404	384	409	408
1546	T4	1	0	0	0	383	359	358	378
1547	T4	1	0	0	0	309	285	304	305
1548	T4	1	0	0	0	284	280	260	279
1549	T4	1	0	0	0	280	255	260	279
1550	T4	1	0	0	0	338	343	318	319
1551	T4	1	0	0	0	307	302	306	326
1552	T4	1	0	0	0	253	254	278	258
1553	T4	1	0	0	0	228	233	229	253
1554	T4	1	0	0	0	233	253	228	252
1555	T4	1	0	0	0	439	415	419	414
1556	T4	1	0	0	0	455	435	459	454
1557	T4	1	0	0	0	355	330	335	354
1558	T4	1	0	0	0	435	439	434	415
1559	T4	1	0	0	0	414	394	418	413
1560	T4	1	0	0	0	483	459	463	458
1561	T4	1	0	0	0	419	394	418	414
1562	T4	1	0	0	0	434	433	429	409
1563	T4	1	0	0	0	410	435	434	415
1564	T4	1	0	0	0	370	365	369	389
1565	T4	1	0	0	0	440	464	444	445
1566	T4	1	0	0	0	370	389	394	390
1567	T4	1	0	0	0	409	389	413	408
1568	T4	1	0	0	0	334	335	315	310
1569	T4	1	0	0	0	440	415	420	439
1570	T4	1	0	0	0	440	439	420	444
1571	T4	1	0	0	0	389	394	414	413
1572	T4	1	0	0	0	504	485	509	484
1573	T4	1	0	0	0	434	415	439	414
1574	T4	1	0	0	0	459	458	439	463
1575	T4	1	0	0	0	263	259	258	283
1576	T4	1	0	0	0	359	364	339	340
1577	T4	1	0	0	0	304	305	329	309
1578	T4	1	0	0	0	283	278	279	259
1579	T4	1	0	0	0	410	414	434	409
1580	T4	1	0	0	0	364	388	369	389
1581	T4	1	0	0	0	364	388	389	384
1582	T4	1	0	0	0	364	388	368	369
1583	T4	1	0	0	0	314	334	315	310
1584	T4	1	0	0	0	440	439	435	415
1585	T4	1	0	0	0	384	365	364	360
1586	T4	1	0	0	0	365	384	389	385
1587	T4	1	0	0	0	434	459	439	435
1588	T4	1	0	0	0	390	385	389	409
1589	T4	1	0	0	0	358	359	339	334
1590	T4	1	0	0	0	335	360	359	340
1591	T4	1	0	0	0	433	434	429	453
1592	T4	1	0	0	0	309	305	329	310
1593	T4	1	0	0	0	257	253	277	258
1594	T4	1	0	0	0	283	279	284	259
1595	T4	1	0	0	0	354	329	334	353
1596	T4	1	0	0	0	390	414	395	415
1597	T4	1	0	0	0	435	459	440	460
1598	T4	1	0	0	0	309	329	328	333
1599	T4	1	0	0	0	363	364	344	339
1600	T4	1	0	0	0	363	368	344	364
1601	T4	1	0	0	0	363	388	368	364
1602	T4	1	0	0	0	383	388	363	364
1603	T4	1	0	0	0	490	489	470	494
1604	T4	1	0	0	0	490	465	470	489
1605	T4	1	0	0	0	510	485	490	509
1606	T4	1	0	0	0	439	464	444	440
1607	T4	1	0	0	0	490	510	514	515
1608	T4	1	0	0	0	465	470	469	445
1609	T4	1	0	0	0	464	465	469	445
1610	T4	1	0	0	0	464	465	445	440
1611	T4	1	0	0	0	509	485	490	489
1612	T4	1	0	0	0	490	485	465	489
1613	T4	1	0	0	0	465	464	489	484
1614	T4	1	0	0	0	464	489	469	465
1615	T4	1	0	0	0	464	488	469	489
1616	T4	1	0	0	0	495	490	514	515
1617	T4	1	0	0	0	509	489	490	514
1618	T4	1	0	0	0	495	515	519	520
1619	T4	1	0	0	0	379	383	403	378
1620	T4	1	0	0	0	433	413	432	408
1621	T4	1	0	0	0	434	414	433	409
1622	T4	1	0	0	0	429	434	430	454
1623	T4	1	0	0	0	354	334	358	353
1624	T4	1	0	0	0	355	359	354	335
1625	T4	1	0	0	0	414	389	413	409
1626	T4	1	0	0	0	360	365	364	340
1627	T4	1	0	0	0	410	415	434	414
1628	T4	1	0	0	0	390	409	389	414
1629	T4	1	0	0	0	435	459	439	440
1630	T4	1	0	0	0	505	485	510	509
1631	T4	1	0	0	0	264	265	240	260
1632	T4	1	0	0	0	264	260	240	259
1633	T4	1	0	0	0	408	383	407	403
1634	T4	1	0	0	0	259	260	240	235
1635	T4	1	0	0	0	284	259	260	264
1636	T4	1	0	0	0	284	260	265	264
1637	T4	1	0	0	0	233	238	258	257
1638	T4	1	0	0	0	382	383	358	378
1639	T4	1	0	0	0	310	285	309	305
1640	T4	1	0	0	0	261	266	242	262
1641	T4	1	0	0	0	355	360	359	335
1642	T4	1	0	0	0	334	339	338	314
1643	T4	1	0	0	0	404	409	428	408
1644	T4	1	0	0	0	317	318	293	313
1645	T4	1	0	0	0	365	385	360	384
1646	T4	1	0	0	0	360	385	380	384
1647	T4	1	0	0	0	382	387	363	383
1648	T4	1	0	0	0	429	410	409	405
1649	T4	1	0	0	0	356	357	376	381
1650	T4	1	0	0	0	408	407	427	403
1651	T4	1	0	0	0	339	340	315	335
1652	T4	1	0	0	0	284	279	260	259
1653	T4	1	0	0	0	338	314	318	313
1654	T4	1	0	0	0	314	309	290	289
1655	T4	1	0	0	0	337	338	318	313
1656	T4	1	0	0	0	314	309	289	313
1657	T4	1	0	0	0	279	254	255	259
1658	T4	1	0	0	0	277	278	282	258
1659	T4	1	0	0	0	234	259	258	239
1660	T4	1	0	0	0	239	259	258	263
1661	T4	1	0	0	0	234	254	258	259
1662	T4	1	0	0	0	327	307	331	326
1663	T4	1	0	0	0	334	339	315	335
1664	T4	1	0	0	0	304	285	284	280
1665	T4	1	0	0	0	258	278	283	259
1666	T4	1	0	0	0	277	253	278	258
1667	T4	1	0	0	0	258	254	278	259
1668	T4	1	0	0	0	305	285	304	280
1669	T4	1	0	0	0	402	406	426	401
1670	T4	1	0	0	0	337	313	312	332
1671	T4	1	0	0	0	310	285	290	309
1672	T4	1	0	0	0	405	385	409	404
1673	T4	1	0	0	0	360	364	359	340
1674	T4	1	0	0	0	384	364	359	360
1675	T4	1	0	0	0	414	413	433	409
1676	T4	1	0	0	0	334	359	339	335
1677	T4	1	0	0	0	335	359	339	340
1678	T4	1	0	0	0	329	305	330	310
1679	T4	1	0	0	0	409	413	433	408
1680	T4	1	0	0	0	314	339	315	334
1681	T4	1	0	0	0	334	358	338	339
1682	T4	1	0	0	0	382	378	358	377
1683	T4	1	0	0	0	359	334	358	354
1684	T4	1	0	0	0	380	385	405	404
1685	T4	1	0	0	0	310	335	330	334
1686	T4	1	0	0	0	310	334	330	329
1687	T4	1	0	0	0	379	360	380	384
1688	T4	1	0	0	0	310	334	329	309
1689	T4	1	0	0	0	383	364	363	359
1690	T4	1	0	0	0	383	359	363	358
1691	T4	1	0	0	0	383	384	364	359
1692	T4	1	0	0	0	354	330	334	329
1693	T4	1	0	0	0	409	433	428	408
1694	T4	1	0	0	0	383	384	359	379
1695	T4	1	0	0	0	359	360	379	384
1696	T4	1	0	0	0	355	360	379	359
1697	T4	1	0	0	0	359	379	355	354
1698	T4	1	0	0	0	257	277	282	258
1699	T4	1	0	0	0	261	256	257	237
1700	T4	1	0	0	0	262	261	257	237
1701	T4	1	0	0	0	258	282	257	262
1702	T4	1	0	0	0	387	367	368	392
1703	T4	1	0	0	0	478	454	458	453
1704	T4	1	0	0	0	503	484	504	508
1705	T4	1	0	0	0	430	410	434	429
1706	T4	1	0	0	0	380	385	404	384
1707	T4	1	0	0	0	505	485	509	504
1708	T4	1	0	0	0	234	253	233	258
1709	T4	1	0	0	0	457	452	433	432
1710	T4	1	0	0	0	479	480	504	484
1711	T4	1	0	0	0	480	460	479	455
1712	T4	1	0	0	0	484	460	479	480
1713	T4	1	0	0	0	379	359	378	354
1714	T4	1	0	0	0	408	403	428	404
1715	T4	1	0	0	0	432	413	412	408
1716	T4	1	0	0	0	432	412	407	408
1717	T4	1	0	0	0	503	479	483	478
1718	T4	1	0	0	0	483	479	459	478
1719	T4	1	0	0	0	383	359	378	379
1720	T4	1	0	0	0	379	384	404	403
1721	T4	1	0	0	0	404	384	408	403
1722	T4	1	0	0	0	403	384	408	383
1723	T4	1	0	0	0	379	384	403	383
1724	T4	1	0	0	0	453	434	429	454
1725	T4	1	0	0	0	506	501	482	481
1726	T4	1	0	0	0	428	433	432	408
1727	T4	1	0	0	0	452	428	433	432
1728	T4	1	0	0	0	458	434	433	453
1729	T4	1	0	0	0	434	414	439	438
1730	T4	1	0	0	0	419	438	443	439
1731	T4	1	0	0	0	458	462	457	438
1732	T4	1	0	0	0	438	462	457	437
1733	T4	1	0	0	0	438	437	457	433
1734	T4	1	0	0	0	438	437	418	442
1735	T4	1	0	0	0	443	438	418	442
1736	T4	1	0	0	0	462	437	438	442
1737	T4	1	0	0	0	458	434	453	454
1738	T4	1	0	0	0	387	411	412	407
1739	T4	1	0	0	0	234	254	253	258
1740	T4	1	0	0	0	468	463	443	467
1741	T4	1	0	0	0	508	509	513	489
1742	T4	1	0	0	0	482	478	458	477
1743	T4	1	0	0	0	507	502	482	506
1744	T4	1	0	0	0	487	463	468	467
1745	T4	1	0	0	0	506	482	486	481
1746	T4	1	0	0	0	482	477	458	457
1747	T4	1	0	0	0	458	462	482	457
1748	T4	1	0	0	0	463	482	458	462
1749	T4	1	0	0	0	483	478	459	458
1750	T4	1	0	0	0	387	363	367	362
1751	T4	1	0	0	0	387	363	368	367
1752	T4	1	0	0	0	388	363	368	387
1753	T4	1	0	0	0	387	411	386	391
1754	T4	1	0	0	0	392	411	387	391
1755	T4	1	0	0	0	416	412	411	436
1756	T4	1	0	0	0	436	412	411	431
1757	T4	1	0	0	0	437	413	412	432
1758	T4	1	0	0	0	437	413	417	412
1759	T4	1	0	0	0	456	451	432	431
1760	T4	1	0	0	0	501	477	482	481
1761	T4	1	0	0	0	482	477	457	481
1762	T4	1	0	0	0	461	457	437	456
1763	T4	1	0	0	0	418	413	417	437
1764	T4	1	0	0	0	459	463	439	464
1765	T4	1	0	0	0	483	459	464	463
1766	T4	1	0	0	0	438	443	463	462
1767	T4	1	0	0	0	458	434	439	438
1768	T4	1	0	0	0	511	487	492	491
1769	T4	1	0	0	0	419	418	438	414
1770	T4	1	0	0	0	414	418	438	413
1771	T4	1	0	0	0	508	489	513	488
1772	T4	1	0	0	0	513	489	494	493
1773	T4	1	0	0	0	513	488	489	493
1774	T4	1	0	0	0	406	411	387	407
1775	T4	1	0	0	0	487	506	486	511
1776	T4	1	0	0	0	463	483	458	482
1777	T4	1	0	0	0	483	478	458	482
1778	T4	1	0	0	0	514	494	518	513
1779	T4	1	0	0	0	377	401	376	381
1780	T4	1	0	0	0	517	512	492	516
1781	T4	1	0	0	0	381	357	376	377
1782	T4	1	0	0	0	331	307	311	306
1783	T4	1	0	0	0	232	228	227	252
1784	T4	1	0	0	0	232	252	227	251
1785	T4	1	0	0	0	232	233	228	252
1786	T4	1	0	0	0	239	258	238	263
1787	T4	1	0	0	0	238	263	258	262
1788	T4	1	0	0	0	234	258	238	239
1789	T4	1	0	0	0	234	258	233	238
1790	T4	1	0	0	0	302	277	282	301
1791	T4	1	0	0	0	303	283	308	307
1792	T4	1	0	0	0	308	307	327	303
1793	T4	1	0	0	0	358	338	357	333
1794	T4	1	0	0	0	303	284	283	279
1795	T4	1	0	0	0	287	263	262	282
1796	T4	1	0	0	0	263	282	258	262
1797	T4	1	0	0	0	353	358	333	334
1798	T4	1	0	0	0	309	334	333	314
1799	T4	1	0	0	0	309	329	333	334
1800	T4	1	0	0	0	353	334	333	329
1801	T4	1	0	0	0	309	284	289	308
1802	T4	1	0	0	0	382	383	363	358
1803	T4	1	0	0	0	382	407	387	383
1804	T4	1	0	0	0	313	333	308	332
1805	T4	1	0	0	0	328	304	308	303
1806	T4	1	0	0	0	377	378	358	353
1807	T4	1	0	0	0	308	328	332	333
1808	T4	1	0	0	0	362	387	363	382
1809	T4	1	0	0	0	386	387	362	382
1810	T4	1	0	0	0	232	233	252	257
1811	T4	1	0	0	0	402	407	426	406
1812	T4	1	0	0	0	257	277	252	276
1813	T4	1	0	0	0	308	303	327	328
1814	T4	1	0	0	0	308	327	332	328
1815	T4	1	0	0	0	311	307	287	306
1816	T4	1	0	0	0	357	332	337	356
1817	T4	1	0	0	0	353	333	328	329
1818	T4	1	0	0	0	329	309	328	304
1819	T4	1	0	0	0	309	328	308	333
1820	T4	1	0	0	0	362	338	357	358
1821	T4	1	0	0	0	352	328	332	327
1822	T4	1	0	0	0	357	352	332	356
1823	T4	1	0	0	0	457	452	432	456
1824	T4	1	0	0	0	278	283	302	282
1825	T4	1	0	0	0	233	257	253	252
1826	T4	1	0	0	0	328	309	308	304
1827	T4	1	0	0	0	353	333	352	328
1828	T4	1	0	0	0	327	351	332	352
1829	T4	1	0	0	0	361	362	357	381
1830	T4	1	0	0	0	382	362	357	358
1831	T4	1	0	0	0	402	383	407	382
1832	T4	1	0	0	0	427	407	402	403
1833	T4	1	0	0	0	257	256	232	237
1834	T4	1	0	0	0	502	477	482	501
1835	T4	1	0	0	0	386	362	381	382
1836	T4	1	0	0	0	287	307	288	283
1837	T4	1	0	0	0	377	402	401	382
1838	T4	1	0	0	0	258	238	262	257
1839	T4	1	0	0	0	257	238	262	237
1840	T4	1	0	0	0	241	242	237	261
1841	T4	1	0	0	0	241	266	242	261
1842	T4	1	0	0	0	232	237	233	257
1843	T4	1	0	0	0	233	238	257	237
1844	T4	1	0	0	0	361	356	337	336
1845	T4	1	0	0	0	257	261	262	281
1846	T4	1	0	0	0	286	306	282	281
1847	T4	1	0	0	0	456	457	437	432
1848	T4	1	0	0	0	281	277	257	276
1849	T4	1	0	0	0	257	256	281	276
1850	T4	1	0	0	0	256	236	232	237
1851	T4	1	0	0	0	231	236	232	256
1852	T4	1	0	0	0	301	277	282	281
1853	T4	1	0	0	0	281	286	262	282
1854	T4	1	0	0	0	331	351	332	327
1855	T4	1	0	0	0	362	338	337	357
1856	T4	1	0	0	0	361	362	337	357
1857	T4	1	0	0	0	361	357	356	381
1858	T4	1	0	0	0	377	357	352	353
1859	T4	1	0	0	0	353	357	352	333
1860	T4	1	0	0	0	352	357	332	333
1861	T4	1	0	0	0	287	312	288	307
1862	T4	1	0	0	0	312	332	308	307
1863	T4	1	0	0	0	232	252	256	257
1864	T4	1	0	0	0	232	252	251	256
1865	T4	1	0	0	0	231	256	232	251
1866	T4	1	0	0	0	261	286	262	281
1867	T4	1	0	0	0	257	256	261	281
1868	T4	1	0	0	0	307	308	288	283
1869	T4	1	0	0	0	286	311	287	306
1870	T4	1	0	0	0	356	332	336	331
1871	T4	1	0	0	0	402	383	382	378
1872	T4	1	0	0	0	432	412	431	407
1873	T4	1	0	0	0	431	456	436	432
1874	T4	1	0	0	0	462	461	466	486
1875	T4	1	0	0	0	308	307	332	327
1876	T4	1	0	0	0	331	327	332	307
1877	T4	1	0	0	0	331	332	312	307
1878	T4	1	0	0	0	331	312	311	307
1879	T4	1	0	0	0	311	312	287	307
1880	T4	1	0	0	0	303	283	307	302
1881	T4	1	0	0	0	432	451	427	431
1882	T4	1	0	0	0	386	362	361	381
1883	T4	1	0	0	0	506	507	487	482
1884	T4	1	0	0	0	487	483	463	482
1885	T4	1	0	0	0	461	481	457	456
1886	T4	1	0	0	0	501	476	477	481
1887	T4	1	0	0	0	456	452	432	451
1888	T4	1	0	0	0	417	412	416	436
1889	T4	1	0	0	0	417	412	436	437
1890	T4	1	0	0	0	481	457	462	461
1891	T4	1	0	0	0	482	457	462	481
1892	T4	1	0	0	0	488	483	463	487
1893	T4	1	0	0	0	488	463	468	487
1894	T4	1	0	0	0	488	487	468	492
1895	T4	1	0	0	0	381	406	386	382
1896	T4	1	0	0	0	511	486	487	491
1897	T4	1	0	0	0	507	511	487	512
1898	T4	1	0	0	0	508	512	507	488
1899	T4	1	0	0	0	467	462	466	486
1900	T4	1	0	0	0	467	486	466	491
1901	T4	1	0	0	0	507	512	487	488
1902	T4	1	0	0	0	506	487	486	482
1903	T4	1	0	0	0	508	513	512	488
1904	T4	1	0	0	0	512	488	493	492
1905	T4	1	0	0	0	386	406	387	382
1906	T4	1	0	0	0	517	512	493	492
1907	T4	1	0	0	0	507	483	488	487
1908	T4	1	0	0	0	512	487	492	511
1909	T4	1	0	0	0	432	452	427	451
1910	T4	1	0	0	0	377	401	381	382
1911	T4	1	0	0	0	431	407	406	426
1912	T4	1	0	0	0	403	383	402	378
1913	T4	1	0	0	0	402	406	401	382
1914	T4	1	0	0	0	402	407	406	382
1915	T4	1	0	0	0	386	411	387	406
1916	T4	1	0	0	0	502	478	482	477
1917	T4	1	0	0	0	477	452	457	476
1918	T4	1	0	0	0	502	483	507	482
1919	T4	1	0	0	0	503	483	507	502
1920	T4	1	0	0	0	503	478	483	502
Displacement BCs (node, 3-x-y-z-spec (0-free, 1-spec), xspecdis yspecdis zspecdis) 
1	1	0	0	0	0	0
2	1	0	0	0	0	0
3	1	0   	1	0	0	0
4	1	0	0	0	0	0
5	1	0	0	0	0	0
6	1	0	0	0	0	0
7	1	0	0	0	0	0
8	1	0	1	0	0	0
9	1	0	0	0	0	0
10	1	0	0	0	0	0
11	1	1	0	0	0	0
12	1	1	0	0	0	0
13	1	1	1	0	0	0
14	1	1	0	0	0	0
15	1	1	0	0	0	0
16	1	0	0	0	0	0
17	1	0	0	0	0	0
18	1	0	1	0	0	0
19	1	0	0	0	0	0
20	1	0	0	0	0	0
21	1	0	0	0	0	0
22	1   	0	0	0	0	0
23	1	0	1	0	0	0
24	1	0	0	0	0	0
25	1	0	0	0	0	0
Face Tractions: (ElementNumber, FaceNumber (1:1-2-3, 2:2-3-4, 3:3-4-1, 4:1-2-4), Loadtype [1-Impulse, 2-Triangular Pulse, 3-Sinusoidal Pulse], tnX, tnY, tnZ 
1297	2	1	2.00E+08	0	0
1300	2	1	2.00E+08	0	0
1494	2	1	2.00E+08	0	0
1607	2	1	2.00E+08	0	0
1618	2	1	2.00E+08	0	0
1254	3	1	2.00E+08	0	0
1311	3	1	2.00E+08	0	0
1517	3	1	2.00E+08	0	0
1630	3	1	2.00E+08	0	0
1704	3	1	2.00E+08	0	0
1707	3	1	2.00E+08	0	0
1778	3	1	2.00E+08	0	0
1919	3	1	2.00E+08	0	0
150	4	1	2.00E+08	0	0
1052	4	1	2.00E+08	0	0
1223	4	1	2.00E+08	0	0
1244	4	1	2.00E+08	0	0
1246	4	1	2.00E+08	0	0
1367	4	1	2.00E+08	0	0
1386	4	1	2.00E+08	0	0
1405	4	1	2.00E+08	0	0
1502	4	1	2.00E+08	0	0
1522	4	1	2.00E+08	0	0
1743	4	1	2.00E+08	0	0
1780	4	1	2.00E+08	0	0
1897	4	1	2.00E+08	0	0
232	1	1	2.00E+08	0	0
1217	1	1	2.00E+08	0	0
1250	1	1	2.00E+08	0	0
1741	1	1	2.00E+08	0	0
1898	1	1	2.00E+08	0	0
1903	1	1	2.00E+08	0	0
Nodal Loads (node, Loadtype [1-Impulse, 2-Triangular Pulse, 3-Sinusoidal Pulse], xload, yload, zload) 
