MaterialData (MaterialNumber, MaterialType, E, nu, density, max. principal stress limit for deletion) 
       1        PlaneStress    2.10000e+011    2.99000e-01 	8.00000e+03    5.0e+15
Mesh Parameters: (Total-number-of-Nodes Total-number-of-Elements, Simulation End time, dt, Impulse start-time, Impulse end-time, newmark-gamma, newmark-beta)
      105    	160      2e-2 	1e-04 	0 	2e-02 	0.5 	0 
Nodal Coordinates (x,y) 
	0	0
	2.5	0
	5	0
	7.5	0
	10	0
	12.5	0
	15	0
	17.5	0
	20	0
	22.5	0
	25	0
	27.5	0
	30	0
	32.5	0
	35	0
	37.5	0
	40	0
	42.5	0
	45	0
	47.5	0
	50	0
	0	2.5
	2.5	2.5
	5	2.5
	7.5	2.5
	10	2.5
	12.5	2.5
	15	2.5
	17.5	2.5
	20	2.5
	22.5	2.5
	25	2.5
	27.5	2.5
	30	2.5
	32.5	2.5
	35	2.5
	37.5	2.5
	40	2.5
	42.5	2.5
	45	2.5
	47.5	2.5
	50	2.5
	0	5
	2.5	5
	5	5
	7.5	5
	10	5
	12.5	5
	15	5
	17.5	5
	20	5
	22.5	5
	25	5
	27.5	5
	30	5
	32.5	5
	35	5
	37.5	5
	40	5
	42.5	5
	45	5
	47.5	5
	50	5
	0	7.5
	2.5	7.5
	5	7.5
	7.5	7.5
	10	7.5
	12.5	7.5
	15	7.5
	17.5	7.5
	20	7.5
	22.5	7.5
	25	7.5
	27.5	7.5
	30	7.5
	32.5	7.5
	35	7.5
	37.5	7.5
	40	7.5
	42.5	7.5
	45	7.5
	47.5	7.5
	50	7.5
	0	10
	2.5	10
	5	10
	7.5	10
	10	10
	12.5	10
	15	10
	17.5	10
	20	10
	22.5	10
	25	10
	27.5	10
	30	10
	32.5	10
	35	10
	37.5	10
	40	10
	42.5	10
	45	10
	47.5	10
	50	10
Element Connectivities (ElementNumber, Type, MaterialNumber, bx, by, Connectivity: (Node1, Node2, Node3 ... )) 
	1	T3	1	0	0	1	2	23
	2	T3	1	0	0	23	22	1
	3	T3	1	0	0	2	3	24
	4	T3	1	0	0	24	23	2
	5	T3	1	0	0	3	4	25
	6	T3	1	0	0	25	24	3
	7	T3	1	0	0	4	5	26
	8	T3	1	0	0	26	25	4
	9	T3	1	0	0	5	6	27
	10	T3	1	0	0	27	26	5
	11	T3	1	0	0	6	7	28
	12	T3	1	0	0	28	27	6
	13	T3	1	0	0	7	8	29
	14	T3	1	0	0	29	28	7
	15	T3	1	0	0	8	9	30
	16	T3	1	0	0	30	29	8
	17	T3	1	0	0	9	10	31
	18	T3	1	0	0	31	30	9
	19	T3	1	0	0	10	11	32
	20	T3	1	0	0	32	31	10
	21	T3	1	0	0	11	12	33
	22	T3	1	0	0	33	32	11
	23	T3	1	0	0	12	13	34
	24	T3	1	0	0	34	33	12
	25	T3	1	0	0	13	14	35
	26	T3	1	0	0	35	34	13
	27	T3	1	0	0	14	15	36
	28	T3	1	0	0	36	35	14
	29	T3	1	0	0	15	16	37
	30	T3	1	0	0	37	36	15
	31	T3	1	0	0	16	17	38
	32	T3	1	0	0	38	37	16
	33	T3	1	0	0	17	18	39
	34	T3	1	0	0	39	38	17
	35	T3	1	0	0	18	19	40
	36	T3	1	0	0	40	39	18
	37	T3	1	0	0	19	20	41
	38	T3	1	0	0	41	40	19
	39	T3	1	0	0	20	21	42
	40	T3	1	0	0	42	41	20
	41	T3	1	0	0	22	23	44
	42	T3	1	0	0	44	43	22
	43	T3	1	0	0	23	24	45
	44	T3	1	0	0	45	44	23
	45	T3	1	0	0	24	25	46
	46	T3	1	0	0	46	45	24
	47	T3	1	0	0	25	26	47
	48	T3	1	0	0	47	46	25
	49	T3	1	0	0	26	27	48
	50	T3	1	0	0	48	47	26
	51	T3	1	0	0	27	28	49
	52	T3	1	0	0	49	48	27
	53	T3	1	0	0	28	29	50
	54	T3	1	0	0	50	49	28
	55	T3	1	0	0	29	30	51
	56	T3	1	0	0	51	50	29
	57	T3	1	0	0	30	31	52
	58	T3	1	0	0	52	51	30
	59	T3	1	0	0	31	32	53
	60	T3	1	0	0	53	52	31
	61	T3	1	0	0	32	33	54
	62	T3	1	0	0	54	53	32
	63	T3	1	0	0	33	34	55
	64	T3	1	0	0	55	54	33
	65	T3	1	0	0	34	35	56
	66	T3	1	0	0	56	55	34
	67	T3	1	0	0	35	36	57
	68	T3	1	0	0	57	56	35
	69	T3	1	0	0	36	37	58
	70	T3	1	0	0	58	57	36
	71	T3	1	0	0	37	38	59
	72	T3	1	0	0	59	58	37
	73	T3	1	0	0	38	39	60
	74	T3	1	0	0	60	59	38
	75	T3	1	0	0	39	40	61
	76	T3	1	0	0	61	60	39
	77	T3	1	0	0	40	41	62
	78	T3	1	0	0	62	61	40
	79	T3	1	0	0	41	42	63
	80	T3	1	0	0	63	62	41
	81	T3	1	0	0	43	44	65
	82	T3	1	0	0	65	64	43
	83	T3	1	0	0	44	45	66
	84	T3	1	0	0	66	65	44
	85	T3	1	0	0	45	46	67
	86	T3	1	0	0	67	66	45
	87	T3	1	0	0	46	47	68
	88	T3	1	0	0	68	67	46
	89	T3	1	0	0	47	48	69
	90	T3	1	0	0	69	68	47
	91	T3	1	0	0	48	49	70
	92	T3	1	0	0	70	69	48
	93	T3	1	0	0	49	50	71
	94	T3	1	0	0	71	70	49
	95	T3	1	0	0	50	51	72
	96	T3	1	0	0	72	71	50
	97	T3	1	0	0	51	52	73
	98	T3	1	0	0	73	72	51
	99	T3	1	0	0	52	53	74
	100	T3	1	0	0	74	73	52
	101	T3	1	0	0	53	54	75
	102	T3	1	0	0	75	74	53
	103	T3	1	0	0	54	55	76
	104	T3	1	0	0	76	75	54
	105	T3	1	0	0	55	56	77
	106	T3	1	0	0	77	76	55
	107	T3	1	0	0	56	57	78
	108	T3	1	0	0	78	77	56
	109	T3	1	0	0	57	58	79
	110	T3	1	0	0	79	78	57
	111	T3	1	0	0	58	59	80
	112	T3	1	0	0	80	79	58
	113	T3	1	0	0	59	60	81
	114	T3	1	0	0	81	80	59
	115	T3	1	0	0	60	61	82
	116	T3	1	0	0	82	81	60
	117	T3	1	0	0	61	62	83
	118	T3	1	0	0	83	82	61
	119	T3	1	0	0	62	63	84
	120	T3	1	0	0	84	83	62
	121	T3	1	0	0	64	65	86
	122	T3	1	0	0	86	85	64
	123	T3	1	0	0	65	66	87
	124	T3	1	0	0	87	86	65
	125	T3	1	0	0	66	67	88
	126	T3	1	0	0	88	87	66
	127	T3	1	0	0	67	68	89
	128	T3	1	0	0	89	88	67
	129	T3	1	0	0	68	69	90
	130	T3	1	0	0	90	89	68
	131	T3	1	0	0	69	70	91
	132	T3	1	0	0	91	90	69
	133	T3	1	0	0	70	71	92
	134	T3	1	0	0	92	91	70
	135	T3	1	0	0	71	72	93
	136	T3	1	0	0	93	92	71
	137	T3	1	0	0	72	73	94
	138	T3	1	0	0	94	93	72
	139	T3	1	0	0	73	74	95
	140	T3	1	0	0	95	94	73
	141	T3	1	0	0	74	75	96
	142	T3	1	0	0	96	95	74
	143	T3	1	0	0	75	76	97
	144	T3	1	0	0	97	96	75
	145	T3	1	0	0	76	77	98
	146	T3	1	0	0	98	97	76
	147	T3	1	0	0	77	78	99
	148	T3	1	0	0	99	98	77
	149	T3	1	0	0	78	79	100
	150	T3	1	0	0	100	99	78
	151	T3	1	0	0	79	80	101
	152	T3	1	0	0	101	100	79
	153	T3	1	0	0	80	81	102
	154	T3	1	0	0	102	101	80
	155	T3	1	0	0	81	82	103
	156	T3	1	0	0	103	102	81
	157	T3	1	0	0	82	83	104
	158	T3	1	0	0	104	103	82
	159	T3	1	0	0	83	84	105
	160	T3	1	0	0	105	104	83
Displacement BCs (node, xspec (0-free, 1-spec) yspec (0-free, 1-spec), xspecdis yspecdis) 
       1        1        1    0.00000e+000    0.00000e+000
      22        1        1    0.00000e+000    0.00000e+000 
      43        1        1    0.00000e+000    0.00000e+000
      64        1        1    0.00000e+000    0.00000e+000
      85        1        1    0.00000e+000    0.00000e+000 
Edge Tractions: (ElementNumber, EdgeNumber (Edge1:Node1-Node2, Edge2:Node2-Node3, ..., EdgeN:NodeN-Node1), tnX, tnY 
      39	2	-2.00000e+8	0
      79	2	-2.00000e+8	0
     119	2	-2.00000e+8	0
     159	2	-2.00000e+8	0	
Nodal Loads (node, xload yload) 
