MaterialData (MaterialNumber, MaterialType, E, nu, density, max. principal stress limit for element deletion) 
       1        PlaneStress    2.10000e+011    3.000e-01 	8.00000e+03    5.0e+15
Mesh Parameters: (Total-number-of-Nodes Total-number-of-Elements, Simulation End time, dt, Impulse start-time, Impulse end-time, newmark-gamma, newmark-beta)
      105	80	2e-2	1e-04	0	2e-02	0.5	0 
Nodal Coordinates (x,y) 
	0	0
	2.5	0
	5	0
	7.5	0
	10	0
	12.5	0
	15	0
	17.5	0
	20	0
	22.5	0
	25	0
	27.5	0
	30	0
	32.5	0
	35	0
	37.5	0
	40	0
	42.5	0
	45	0
	47.5	0
	50	0
	0	2.5
	2.5	2.5
	5	2.5
	7.5	2.5
	10	2.5
	12.5	2.5
	15	2.5
	17.5	2.5
	20	2.5
	22.5	2.5
	25	2.5
	27.5	2.5
	30	2.5
	32.5	2.5
	35	2.5
	37.5	2.5
	40	2.5
	42.5	2.5
	45	2.5
	47.5	2.5
	50	2.5
	0	5
	2.5	5
	5	5
	7.5	5
	10	5
	12.5	5
	15	5
	17.5	5
	20	5
	22.5	5
	25	5
	27.5	5
	30	5
	32.5	5
	35	5
	37.5	5
	40	5
	42.5	5
	45	5
	47.5	5
	50	5
	0	7.5
	2.5	7.5
	5	7.5
	7.5	7.5
	10	7.5
	12.5	7.5
	15	7.5
	17.5	7.5
	20	7.5
	22.5	7.5
	25	7.5
	27.5	7.5
	30	7.5
	32.5	7.5
	35	7.5
	37.5	7.5
	40	7.5
	42.5	7.5
	45	7.5
	47.5	7.5
	50	7.5
	0	10
	2.5	10
	5	10
	7.5	10
	10	10
	12.5	10
	15	10
	17.5	10
	20	10
	22.5	10
	25	10
	27.5	10
	30	10
	32.5	10
	35	10
	37.5	10
	40	10
	42.5	10
	45	10
	47.5	10
	50	10
Element Connectivities (ElementNumber, Type, MaterialNumber, bx, by, Connectivity: (Node1, Node2, Node3 ... )) 
	1	Q4	1	0	0	1	2	23	22
	2	Q4	1	0	0	2	3	24	23
	3	Q4	1	0	0	3	4	25	24
	4	Q4	1	0	0	4	5	26	25
	5	Q4	1	0	0	5	6	27	26
	6	Q4	1	0	0	6	7	28	27
	7	Q4	1	0	0	7	8	29	28
	8	Q4	1	0	0	8	9	30	29
	9	Q4	1	0	0	9	10	31	30
	10	Q4	1	0	0	10	11	32	31
	11	Q4	1	0	0	11	12	33	32
	12	Q4	1	0	0	12	13	34	33
	13	Q4	1	0	0	13	14	35	34
	14	Q4	1	0	0	14	15	36	35
	15	Q4	1	0	0	15	16	37	36
	16	Q4	1	0	0	16	17	38	37
	17	Q4	1	0	0	17	18	39	38
	18	Q4	1	0	0	18	19	40	39
	19	Q4	1	0	0	19	20	41	40
	20	Q4	1	0	0	20	21	42	41
	21	Q4	1	0	0	22	23	44	43
	22	Q4	1	0	0	23	24	45	44
	23	Q4	1	0	0	24	25	46	45
	24	Q4	1	0	0	25	26	47	46
	25	Q4	1	0	0	26	27	48	47
	26	Q4	1	0	0	27	28	49	48
	27	Q4	1	0	0	28	29	50	49
	28	Q4	1	0	0	29	30	51	50
	29	Q4	1	0	0	30	31	52	51
	30	Q4	1	0	0	31	32	53	52
	31	Q4	1	0	0	32	33	54	53
	32	Q4	1	0	0	33	34	55	54
	33	Q4	1	0	0	34	35	56	55
	34	Q4	1	0	0	35	36	57	56
	35	Q4	1	0	0	36	37	58	57
	36	Q4	1	0	0	37	38	59	58
	37	Q4	1	0	0	38	39	60	59
	38	Q4	1	0	0	39	40	61	60
	39	Q4	1	0	0	40	41	62	61
	40	Q4	1	0	0	41	42	63	62
	41	Q4	1	0	0	43	44	65	64
	42	Q4	1	0	0	44	45	66	65
	43	Q4	1	0	0	45	46	67	66
	44	Q4	1	0	0	46	47	68	67
	45	Q4	1	0	0	47	48	69	68
	46	Q4	1	0	0	48	49	70	69
	47	Q4	1	0	0	49	50	71	70
	48	Q4	1	0	0	50	51	72	71
	49	Q4	1	0	0	51	52	73	72
	50	Q4	1	0	0	52	53	74	73
	51	Q4	1	0	0	53	54	75	74
	52	Q4	1	0	0	54	55	76	75
	53	Q4	1	0	0	55	56	77	76
	54	Q4	1	0	0	56	57	78	77
	55	Q4	1	0	0	57	58	79	78
	56	Q4	1	0	0	58	59	80	79
	57	Q4	1	0	0	59	60	81	80
	58	Q4	1	0	0	60	61	82	81
	59	Q4	1	0	0	61	62	83	82
	60	Q4	1	0	0	62	63	84	83
	61	Q4	1	0	0	64	65	86	85
	62	Q4	1	0	0	65	66	87	86
	63	Q4	1	0	0	66	67	88	87
	64	Q4	1	0	0	67	68	89	88
	65	Q4	1	0	0	68	69	90	89
	66	Q4	1	0	0	69	70	91	90
	67	Q4	1	0	0	70	71	92	91
	68	Q4	1	0	0	71	72	93	92
	69	Q4	1	0	0	72	73	94	93
	70	Q4	1	0	0	73	74	95	94
	71	Q4	1	0	0	74	75	96	95
	72	Q4	1	0	0	75	76	97	96
	73	Q4	1	0	0	76	77	98	97
	74	Q4	1	0	0	77	78	99	98
	75	Q4	1	0	0	78	79	100	99
	76	Q4	1	0	0	79	80	101	100
	77	Q4	1	0	0	80	81	102	101
	78	Q4	1	0	0	81	82	103	102
	79	Q4	1	0	0	82	83	104	103
	80	Q4	1	0	0	83	84	105	104
Displacement BCs (node, xspec (0-free, 1-spec) yspec (0-free, 1-spec), xspecdis yspecdis) 
       1        1        1    0.00000e+000    0.00000e+000
      22        1        1    0.00000e+000    0.00000e+000 
      43        1        1    0.00000e+000    0.00000e+000
      64        1        1    0.00000e+000    0.00000e+000
      85        1        1    0.00000e+000    0.00000e+000 
Edge Tractions: (ElementNumber, EdgeNumber (Edge1:Node1-Node2, Edge2:Node2-Node3, ..., EdgeN:NodeN-Node1), tnX, tnY 
      20	2	-2.00000e+8	0
      40	2	-2.00000e+8	0
      60	2	-2.00000e+8	0
      80	2	-2.00000e+8	0	
Nodal Loads (node, xload yload) 
